%%MatrixMarket matrix coordinate real symmetric
%
4096 4096 50716
1 1 2.6E1
1 2 -1
1 17 -1
1 18 -1
1 257 -1
1 258 -1
1 273 -1
1 274 -1
2 2 2.6E1
2 3 -1
2 17 -1
2 18 -1
2 19 -1
2 257 -1
2 258 -1
2 259 -1
2 273 -1
2 274 -1
2 275 -1
3 3 2.6E1
3 4 -1
3 18 -1
3 19 -1
3 20 -1
3 258 -1
3 259 -1
3 260 -1
3 274 -1
3 275 -1
3 276 -1
4 4 2.6E1
4 5 -1
4 19 -1
4 20 -1
4 21 -1
4 259 -1
4 260 -1
4 261 -1
4 275 -1
4 276 -1
4 277 -1
5 5 2.6E1
5 6 -1
5 20 -1
5 21 -1
5 22 -1
5 260 -1
5 261 -1
5 262 -1
5 276 -1
5 277 -1
5 278 -1
6 6 2.6E1
6 7 -1
6 21 -1
6 22 -1
6 23 -1
6 261 -1
6 262 -1
6 263 -1
6 277 -1
6 278 -1
6 279 -1
7 7 2.6E1
7 8 -1
7 22 -1
7 23 -1
7 24 -1
7 262 -1
7 263 -1
7 264 -1
7 278 -1
7 279 -1
7 280 -1
8 8 2.6E1
8 9 -1
8 23 -1
8 24 -1
8 25 -1
8 263 -1
8 264 -1
8 265 -1
8 279 -1
8 280 -1
8 281 -1
9 9 2.6E1
9 10 -1
9 24 -1
9 25 -1
9 26 -1
9 264 -1
9 265 -1
9 266 -1
9 280 -1
9 281 -1
9 282 -1
10 10 2.6E1
10 11 -1
10 25 -1
10 26 -1
10 27 -1
10 265 -1
10 266 -1
10 267 -1
10 281 -1
10 282 -1
10 283 -1
11 11 2.6E1
11 12 -1
11 26 -1
11 27 -1
11 28 -1
11 266 -1
11 267 -1
11 268 -1
11 282 -1
11 283 -1
11 284 -1
12 12 2.6E1
12 13 -1
12 27 -1
12 28 -1
12 29 -1
12 267 -1
12 268 -1
12 269 -1
12 283 -1
12 284 -1
12 285 -1
13 13 2.6E1
13 14 -1
13 28 -1
13 29 -1
13 30 -1
13 268 -1
13 269 -1
13 270 -1
13 284 -1
13 285 -1
13 286 -1
14 14 2.6E1
14 15 -1
14 29 -1
14 30 -1
14 31 -1
14 269 -1
14 270 -1
14 271 -1
14 285 -1
14 286 -1
14 287 -1
15 15 2.6E1
15 16 -1
15 30 -1
15 31 -1
15 32 -1
15 270 -1
15 271 -1
15 272 -1
15 286 -1
15 287 -1
15 288 -1
16 16 2.6E1
16 31 -1
16 32 -1
16 271 -1
16 272 -1
16 287 -1
16 288 -1
17 17 2.6E1
17 18 -1
17 33 -1
17 34 -1
17 257 -1
17 258 -1
17 273 -1
17 274 -1
17 289 -1
17 290 -1
18 18 2.6E1
18 19 -1
18 33 -1
18 34 -1
18 35 -1
18 257 -1
18 258 -1
18 259 -1
18 273 -1
18 274 -1
18 275 -1
18 289 -1
18 290 -1
18 291 -1
19 19 2.6E1
19 20 -1
19 34 -1
19 35 -1
19 36 -1
19 258 -1
19 259 -1
19 260 -1
19 274 -1
19 275 -1
19 276 -1
19 290 -1
19 291 -1
19 292 -1
20 20 2.6E1
20 21 -1
20 35 -1
20 36 -1
20 37 -1
20 259 -1
20 260 -1
20 261 -1
20 275 -1
20 276 -1
20 277 -1
20 291 -1
20 292 -1
20 293 -1
21 21 2.6E1
21 22 -1
21 36 -1
21 37 -1
21 38 -1
21 260 -1
21 261 -1
21 262 -1
21 276 -1
21 277 -1
21 278 -1
21 292 -1
21 293 -1
21 294 -1
22 22 2.6E1
22 23 -1
22 37 -1
22 38 -1
22 39 -1
22 261 -1
22 262 -1
22 263 -1
22 277 -1
22 278 -1
22 279 -1
22 293 -1
22 294 -1
22 295 -1
23 23 2.6E1
23 24 -1
23 38 -1
23 39 -1
23 40 -1
23 262 -1
23 263 -1
23 264 -1
23 278 -1
23 279 -1
23 280 -1
23 294 -1
23 295 -1
23 296 -1
24 24 2.6E1
24 25 -1
24 39 -1
24 40 -1
24 41 -1
24 263 -1
24 264 -1
24 265 -1
24 279 -1
24 280 -1
24 281 -1
24 295 -1
24 296 -1
24 297 -1
25 25 2.6E1
25 26 -1
25 40 -1
25 41 -1
25 42 -1
25 264 -1
25 265 -1
25 266 -1
25 280 -1
25 281 -1
25 282 -1
25 296 -1
25 297 -1
25 298 -1
26 26 2.6E1
26 27 -1
26 41 -1
26 42 -1
26 43 -1
26 265 -1
26 266 -1
26 267 -1
26 281 -1
26 282 -1
26 283 -1
26 297 -1
26 298 -1
26 299 -1
27 27 2.6E1
27 28 -1
27 42 -1
27 43 -1
27 44 -1
27 266 -1
27 267 -1
27 268 -1
27 282 -1
27 283 -1
27 284 -1
27 298 -1
27 299 -1
27 300 -1
28 28 2.6E1
28 29 -1
28 43 -1
28 44 -1
28 45 -1
28 267 -1
28 268 -1
28 269 -1
28 283 -1
28 284 -1
28 285 -1
28 299 -1
28 300 -1
28 301 -1
29 29 2.6E1
29 30 -1
29 44 -1
29 45 -1
29 46 -1
29 268 -1
29 269 -1
29 270 -1
29 284 -1
29 285 -1
29 286 -1
29 300 -1
29 301 -1
29 302 -1
30 30 2.6E1
30 31 -1
30 45 -1
30 46 -1
30 47 -1
30 269 -1
30 270 -1
30 271 -1
30 285 -1
30 286 -1
30 287 -1
30 301 -1
30 302 -1
30 303 -1
31 31 2.6E1
31 32 -1
31 46 -1
31 47 -1
31 48 -1
31 270 -1
31 271 -1
31 272 -1
31 286 -1
31 287 -1
31 288 -1
31 302 -1
31 303 -1
31 304 -1
32 32 2.6E1
32 47 -1
32 48 -1
32 271 -1
32 272 -1
32 287 -1
32 288 -1
32 303 -1
32 304 -1
33 33 2.6E1
33 34 -1
33 49 -1
33 50 -1
33 273 -1
33 274 -1
33 289 -1
33 290 -1
33 305 -1
33 306 -1
34 34 2.6E1
34 35 -1
34 49 -1
34 50 -1
34 51 -1
34 273 -1
34 274 -1
34 275 -1
34 289 -1
34 290 -1
34 291 -1
34 305 -1
34 306 -1
34 307 -1
35 35 2.6E1
35 36 -1
35 50 -1
35 51 -1
35 52 -1
35 274 -1
35 275 -1
35 276 -1
35 290 -1
35 291 -1
35 292 -1
35 306 -1
35 307 -1
35 308 -1
36 36 2.6E1
36 37 -1
36 51 -1
36 52 -1
36 53 -1
36 275 -1
36 276 -1
36 277 -1
36 291 -1
36 292 -1
36 293 -1
36 307 -1
36 308 -1
36 309 -1
37 37 2.6E1
37 38 -1
37 52 -1
37 53 -1
37 54 -1
37 276 -1
37 277 -1
37 278 -1
37 292 -1
37 293 -1
37 294 -1
37 308 -1
37 309 -1
37 310 -1
38 38 2.6E1
38 39 -1
38 53 -1
38 54 -1
38 55 -1
38 277 -1
38 278 -1
38 279 -1
38 293 -1
38 294 -1
38 295 -1
38 309 -1
38 310 -1
38 311 -1
39 39 2.6E1
39 40 -1
39 54 -1
39 55 -1
39 56 -1
39 278 -1
39 279 -1
39 280 -1
39 294 -1
39 295 -1
39 296 -1
39 310 -1
39 311 -1
39 312 -1
40 40 2.6E1
40 41 -1
40 55 -1
40 56 -1
40 57 -1
40 279 -1
40 280 -1
40 281 -1
40 295 -1
40 296 -1
40 297 -1
40 311 -1
40 312 -1
40 313 -1
41 41 2.6E1
41 42 -1
41 56 -1
41 57 -1
41 58 -1
41 280 -1
41 281 -1
41 282 -1
41 296 -1
41 297 -1
41 298 -1
41 312 -1
41 313 -1
41 314 -1
42 42 2.6E1
42 43 -1
42 57 -1
42 58 -1
42 59 -1
42 281 -1
42 282 -1
42 283 -1
42 297 -1
42 298 -1
42 299 -1
42 313 -1
42 314 -1
42 315 -1
43 43 2.6E1
43 44 -1
43 58 -1
43 59 -1
43 60 -1
43 282 -1
43 283 -1
43 284 -1
43 298 -1
43 299 -1
43 300 -1
43 314 -1
43 315 -1
43 316 -1
44 44 2.6E1
44 45 -1
44 59 -1
44 60 -1
44 61 -1
44 283 -1
44 284 -1
44 285 -1
44 299 -1
44 300 -1
44 301 -1
44 315 -1
44 316 -1
44 317 -1
45 45 2.6E1
45 46 -1
45 60 -1
45 61 -1
45 62 -1
45 284 -1
45 285 -1
45 286 -1
45 300 -1
45 301 -1
45 302 -1
45 316 -1
45 317 -1
45 318 -1
46 46 2.6E1
46 47 -1
46 61 -1
46 62 -1
46 63 -1
46 285 -1
46 286 -1
46 287 -1
46 301 -1
46 302 -1
46 303 -1
46 317 -1
46 318 -1
46 319 -1
47 47 2.6E1
47 48 -1
47 62 -1
47 63 -1
47 64 -1
47 286 -1
47 287 -1
47 288 -1
47 302 -1
47 303 -1
47 304 -1
47 318 -1
47 319 -1
47 320 -1
48 48 2.6E1
48 63 -1
48 64 -1
48 287 -1
48 288 -1
48 303 -1
48 304 -1
48 319 -1
48 320 -1
49 49 2.6E1
49 50 -1
49 65 -1
49 66 -1
49 289 -1
49 290 -1
49 305 -1
49 306 -1
49 321 -1
49 322 -1
50 50 2.6E1
50 51 -1
50 65 -1
50 66 -1
50 67 -1
50 289 -1
50 290 -1
50 291 -1
50 305 -1
50 306 -1
50 307 -1
50 321 -1
50 322 -1
50 323 -1
51 51 2.6E1
51 52 -1
51 66 -1
51 67 -1
51 68 -1
51 290 -1
51 291 -1
51 292 -1
51 306 -1
51 307 -1
51 308 -1
51 322 -1
51 323 -1
51 324 -1
52 52 2.6E1
52 53 -1
52 67 -1
52 68 -1
52 69 -1
52 291 -1
52 292 -1
52 293 -1
52 307 -1
52 308 -1
52 309 -1
52 323 -1
52 324 -1
52 325 -1
53 53 2.6E1
53 54 -1
53 68 -1
53 69 -1
53 70 -1
53 292 -1
53 293 -1
53 294 -1
53 308 -1
53 309 -1
53 310 -1
53 324 -1
53 325 -1
53 326 -1
54 54 2.6E1
54 55 -1
54 69 -1
54 70 -1
54 71 -1
54 293 -1
54 294 -1
54 295 -1
54 309 -1
54 310 -1
54 311 -1
54 325 -1
54 326 -1
54 327 -1
55 55 2.6E1
55 56 -1
55 70 -1
55 71 -1
55 72 -1
55 294 -1
55 295 -1
55 296 -1
55 310 -1
55 311 -1
55 312 -1
55 326 -1
55 327 -1
55 328 -1
56 56 2.6E1
56 57 -1
56 71 -1
56 72 -1
56 73 -1
56 295 -1
56 296 -1
56 297 -1
56 311 -1
56 312 -1
56 313 -1
56 327 -1
56 328 -1
56 329 -1
57 57 2.6E1
57 58 -1
57 72 -1
57 73 -1
57 74 -1
57 296 -1
57 297 -1
57 298 -1
57 312 -1
57 313 -1
57 314 -1
57 328 -1
57 329 -1
57 330 -1
58 58 2.6E1
58 59 -1
58 73 -1
58 74 -1
58 75 -1
58 297 -1
58 298 -1
58 299 -1
58 313 -1
58 314 -1
58 315 -1
58 329 -1
58 330 -1
58 331 -1
59 59 2.6E1
59 60 -1
59 74 -1
59 75 -1
59 76 -1
59 298 -1
59 299 -1
59 300 -1
59 314 -1
59 315 -1
59 316 -1
59 330 -1
59 331 -1
59 332 -1
60 60 2.6E1
60 61 -1
60 75 -1
60 76 -1
60 77 -1
60 299 -1
60 300 -1
60 301 -1
60 315 -1
60 316 -1
60 317 -1
60 331 -1
60 332 -1
60 333 -1
61 61 2.6E1
61 62 -1
61 76 -1
61 77 -1
61 78 -1
61 300 -1
61 301 -1
61 302 -1
61 316 -1
61 317 -1
61 318 -1
61 332 -1
61 333 -1
61 334 -1
62 62 2.6E1
62 63 -1
62 77 -1
62 78 -1
62 79 -1
62 301 -1
62 302 -1
62 303 -1
62 317 -1
62 318 -1
62 319 -1
62 333 -1
62 334 -1
62 335 -1
63 63 2.6E1
63 64 -1
63 78 -1
63 79 -1
63 80 -1
63 302 -1
63 303 -1
63 304 -1
63 318 -1
63 319 -1
63 320 -1
63 334 -1
63 335 -1
63 336 -1
64 64 2.6E1
64 79 -1
64 80 -1
64 303 -1
64 304 -1
64 319 -1
64 320 -1
64 335 -1
64 336 -1
65 65 2.6E1
65 66 -1
65 81 -1
65 82 -1
65 305 -1
65 306 -1
65 321 -1
65 322 -1
65 337 -1
65 338 -1
66 66 2.6E1
66 67 -1
66 81 -1
66 82 -1
66 83 -1
66 305 -1
66 306 -1
66 307 -1
66 321 -1
66 322 -1
66 323 -1
66 337 -1
66 338 -1
66 339 -1
67 67 2.6E1
67 68 -1
67 82 -1
67 83 -1
67 84 -1
67 306 -1
67 307 -1
67 308 -1
67 322 -1
67 323 -1
67 324 -1
67 338 -1
67 339 -1
67 340 -1
68 68 2.6E1
68 69 -1
68 83 -1
68 84 -1
68 85 -1
68 307 -1
68 308 -1
68 309 -1
68 323 -1
68 324 -1
68 325 -1
68 339 -1
68 340 -1
68 341 -1
69 69 2.6E1
69 70 -1
69 84 -1
69 85 -1
69 86 -1
69 308 -1
69 309 -1
69 310 -1
69 324 -1
69 325 -1
69 326 -1
69 340 -1
69 341 -1
69 342 -1
70 70 2.6E1
70 71 -1
70 85 -1
70 86 -1
70 87 -1
70 309 -1
70 310 -1
70 311 -1
70 325 -1
70 326 -1
70 327 -1
70 341 -1
70 342 -1
70 343 -1
71 71 2.6E1
71 72 -1
71 86 -1
71 87 -1
71 88 -1
71 310 -1
71 311 -1
71 312 -1
71 326 -1
71 327 -1
71 328 -1
71 342 -1
71 343 -1
71 344 -1
72 72 2.6E1
72 73 -1
72 87 -1
72 88 -1
72 89 -1
72 311 -1
72 312 -1
72 313 -1
72 327 -1
72 328 -1
72 329 -1
72 343 -1
72 344 -1
72 345 -1
73 73 2.6E1
73 74 -1
73 88 -1
73 89 -1
73 90 -1
73 312 -1
73 313 -1
73 314 -1
73 328 -1
73 329 -1
73 330 -1
73 344 -1
73 345 -1
73 346 -1
74 74 2.6E1
74 75 -1
74 89 -1
74 90 -1
74 91 -1
74 313 -1
74 314 -1
74 315 -1
74 329 -1
74 330 -1
74 331 -1
74 345 -1
74 346 -1
74 347 -1
75 75 2.6E1
75 76 -1
75 90 -1
75 91 -1
75 92 -1
75 314 -1
75 315 -1
75 316 -1
75 330 -1
75 331 -1
75 332 -1
75 346 -1
75 347 -1
75 348 -1
76 76 2.6E1
76 77 -1
76 91 -1
76 92 -1
76 93 -1
76 315 -1
76 316 -1
76 317 -1
76 331 -1
76 332 -1
76 333 -1
76 347 -1
76 348 -1
76 349 -1
77 77 2.6E1
77 78 -1
77 92 -1
77 93 -1
77 94 -1
77 316 -1
77 317 -1
77 318 -1
77 332 -1
77 333 -1
77 334 -1
77 348 -1
77 349 -1
77 350 -1
78 78 2.6E1
78 79 -1
78 93 -1
78 94 -1
78 95 -1
78 317 -1
78 318 -1
78 319 -1
78 333 -1
78 334 -1
78 335 -1
78 349 -1
78 350 -1
78 351 -1
79 79 2.6E1
79 80 -1
79 94 -1
79 95 -1
79 96 -1
79 318 -1
79 319 -1
79 320 -1
79 334 -1
79 335 -1
79 336 -1
79 350 -1
79 351 -1
79 352 -1
80 80 2.6E1
80 95 -1
80 96 -1
80 319 -1
80 320 -1
80 335 -1
80 336 -1
80 351 -1
80 352 -1
81 81 2.6E1
81 82 -1
81 97 -1
81 98 -1
81 321 -1
81 322 -1
81 337 -1
81 338 -1
81 353 -1
81 354 -1
82 82 2.6E1
82 83 -1
82 97 -1
82 98 -1
82 99 -1
82 321 -1
82 322 -1
82 323 -1
82 337 -1
82 338 -1
82 339 -1
82 353 -1
82 354 -1
82 355 -1
83 83 2.6E1
83 84 -1
83 98 -1
83 99 -1
83 100 -1
83 322 -1
83 323 -1
83 324 -1
83 338 -1
83 339 -1
83 340 -1
83 354 -1
83 355 -1
83 356 -1
84 84 2.6E1
84 85 -1
84 99 -1
84 100 -1
84 101 -1
84 323 -1
84 324 -1
84 325 -1
84 339 -1
84 340 -1
84 341 -1
84 355 -1
84 356 -1
84 357 -1
85 85 2.6E1
85 86 -1
85 100 -1
85 101 -1
85 102 -1
85 324 -1
85 325 -1
85 326 -1
85 340 -1
85 341 -1
85 342 -1
85 356 -1
85 357 -1
85 358 -1
86 86 2.6E1
86 87 -1
86 101 -1
86 102 -1
86 103 -1
86 325 -1
86 326 -1
86 327 -1
86 341 -1
86 342 -1
86 343 -1
86 357 -1
86 358 -1
86 359 -1
87 87 2.6E1
87 88 -1
87 102 -1
87 103 -1
87 104 -1
87 326 -1
87 327 -1
87 328 -1
87 342 -1
87 343 -1
87 344 -1
87 358 -1
87 359 -1
87 360 -1
88 88 2.6E1
88 89 -1
88 103 -1
88 104 -1
88 105 -1
88 327 -1
88 328 -1
88 329 -1
88 343 -1
88 344 -1
88 345 -1
88 359 -1
88 360 -1
88 361 -1
89 89 2.6E1
89 90 -1
89 104 -1
89 105 -1
89 106 -1
89 328 -1
89 329 -1
89 330 -1
89 344 -1
89 345 -1
89 346 -1
89 360 -1
89 361 -1
89 362 -1
90 90 2.6E1
90 91 -1
90 105 -1
90 106 -1
90 107 -1
90 329 -1
90 330 -1
90 331 -1
90 345 -1
90 346 -1
90 347 -1
90 361 -1
90 362 -1
90 363 -1
91 91 2.6E1
91 92 -1
91 106 -1
91 107 -1
91 108 -1
91 330 -1
91 331 -1
91 332 -1
91 346 -1
91 347 -1
91 348 -1
91 362 -1
91 363 -1
91 364 -1
92 92 2.6E1
92 93 -1
92 107 -1
92 108 -1
92 109 -1
92 331 -1
92 332 -1
92 333 -1
92 347 -1
92 348 -1
92 349 -1
92 363 -1
92 364 -1
92 365 -1
93 93 2.6E1
93 94 -1
93 108 -1
93 109 -1
93 110 -1
93 332 -1
93 333 -1
93 334 -1
93 348 -1
93 349 -1
93 350 -1
93 364 -1
93 365 -1
93 366 -1
94 94 2.6E1
94 95 -1
94 109 -1
94 110 -1
94 111 -1
94 333 -1
94 334 -1
94 335 -1
94 349 -1
94 350 -1
94 351 -1
94 365 -1
94 366 -1
94 367 -1
95 95 2.6E1
95 96 -1
95 110 -1
95 111 -1
95 112 -1
95 334 -1
95 335 -1
95 336 -1
95 350 -1
95 351 -1
95 352 -1
95 366 -1
95 367 -1
95 368 -1
96 96 2.6E1
96 111 -1
96 112 -1
96 335 -1
96 336 -1
96 351 -1
96 352 -1
96 367 -1
96 368 -1
97 97 2.6E1
97 98 -1
97 113 -1
97 114 -1
97 337 -1
97 338 -1
97 353 -1
97 354 -1
97 369 -1
97 370 -1
98 98 2.6E1
98 99 -1
98 113 -1
98 114 -1
98 115 -1
98 337 -1
98 338 -1
98 339 -1
98 353 -1
98 354 -1
98 355 -1
98 369 -1
98 370 -1
98 371 -1
99 99 2.6E1
99 100 -1
99 114 -1
99 115 -1
99 116 -1
99 338 -1
99 339 -1
99 340 -1
99 354 -1
99 355 -1
99 356 -1
99 370 -1
99 371 -1
99 372 -1
100 100 2.6E1
100 101 -1
100 115 -1
100 116 -1
100 117 -1
100 339 -1
100 340 -1
100 341 -1
100 355 -1
100 356 -1
100 357 -1
100 371 -1
100 372 -1
100 373 -1
101 101 2.6E1
101 102 -1
101 116 -1
101 117 -1
101 118 -1
101 340 -1
101 341 -1
101 342 -1
101 356 -1
101 357 -1
101 358 -1
101 372 -1
101 373 -1
101 374 -1
102 102 2.6E1
102 103 -1
102 117 -1
102 118 -1
102 119 -1
102 341 -1
102 342 -1
102 343 -1
102 357 -1
102 358 -1
102 359 -1
102 373 -1
102 374 -1
102 375 -1
103 103 2.6E1
103 104 -1
103 118 -1
103 119 -1
103 120 -1
103 342 -1
103 343 -1
103 344 -1
103 358 -1
103 359 -1
103 360 -1
103 374 -1
103 375 -1
103 376 -1
104 104 2.6E1
104 105 -1
104 119 -1
104 120 -1
104 121 -1
104 343 -1
104 344 -1
104 345 -1
104 359 -1
104 360 -1
104 361 -1
104 375 -1
104 376 -1
104 377 -1
105 105 2.6E1
105 106 -1
105 120 -1
105 121 -1
105 122 -1
105 344 -1
105 345 -1
105 346 -1
105 360 -1
105 361 -1
105 362 -1
105 376 -1
105 377 -1
105 378 -1
106 106 2.6E1
106 107 -1
106 121 -1
106 122 -1
106 123 -1
106 345 -1
106 346 -1
106 347 -1
106 361 -1
106 362 -1
106 363 -1
106 377 -1
106 378 -1
106 379 -1
107 107 2.6E1
107 108 -1
107 122 -1
107 123 -1
107 124 -1
107 346 -1
107 347 -1
107 348 -1
107 362 -1
107 363 -1
107 364 -1
107 378 -1
107 379 -1
107 380 -1
108 108 2.6E1
108 109 -1
108 123 -1
108 124 -1
108 125 -1
108 347 -1
108 348 -1
108 349 -1
108 363 -1
108 364 -1
108 365 -1
108 379 -1
108 380 -1
108 381 -1
109 109 2.6E1
109 110 -1
109 124 -1
109 125 -1
109 126 -1
109 348 -1
109 349 -1
109 350 -1
109 364 -1
109 365 -1
109 366 -1
109 380 -1
109 381 -1
109 382 -1
110 110 2.6E1
110 111 -1
110 125 -1
110 126 -1
110 127 -1
110 349 -1
110 350 -1
110 351 -1
110 365 -1
110 366 -1
110 367 -1
110 381 -1
110 382 -1
110 383 -1
111 111 2.6E1
111 112 -1
111 126 -1
111 127 -1
111 128 -1
111 350 -1
111 351 -1
111 352 -1
111 366 -1
111 367 -1
111 368 -1
111 382 -1
111 383 -1
111 384 -1
112 112 2.6E1
112 127 -1
112 128 -1
112 351 -1
112 352 -1
112 367 -1
112 368 -1
112 383 -1
112 384 -1
113 113 2.6E1
113 114 -1
113 129 -1
113 130 -1
113 353 -1
113 354 -1
113 369 -1
113 370 -1
113 385 -1
113 386 -1
114 114 2.6E1
114 115 -1
114 129 -1
114 130 -1
114 131 -1
114 353 -1
114 354 -1
114 355 -1
114 369 -1
114 370 -1
114 371 -1
114 385 -1
114 386 -1
114 387 -1
115 115 2.6E1
115 116 -1
115 130 -1
115 131 -1
115 132 -1
115 354 -1
115 355 -1
115 356 -1
115 370 -1
115 371 -1
115 372 -1
115 386 -1
115 387 -1
115 388 -1
116 116 2.6E1
116 117 -1
116 131 -1
116 132 -1
116 133 -1
116 355 -1
116 356 -1
116 357 -1
116 371 -1
116 372 -1
116 373 -1
116 387 -1
116 388 -1
116 389 -1
117 117 2.6E1
117 118 -1
117 132 -1
117 133 -1
117 134 -1
117 356 -1
117 357 -1
117 358 -1
117 372 -1
117 373 -1
117 374 -1
117 388 -1
117 389 -1
117 390 -1
118 118 2.6E1
118 119 -1
118 133 -1
118 134 -1
118 135 -1
118 357 -1
118 358 -1
118 359 -1
118 373 -1
118 374 -1
118 375 -1
118 389 -1
118 390 -1
118 391 -1
119 119 2.6E1
119 120 -1
119 134 -1
119 135 -1
119 136 -1
119 358 -1
119 359 -1
119 360 -1
119 374 -1
119 375 -1
119 376 -1
119 390 -1
119 391 -1
119 392 -1
120 120 2.6E1
120 121 -1
120 135 -1
120 136 -1
120 137 -1
120 359 -1
120 360 -1
120 361 -1
120 375 -1
120 376 -1
120 377 -1
120 391 -1
120 392 -1
120 393 -1
121 121 2.6E1
121 122 -1
121 136 -1
121 137 -1
121 138 -1
121 360 -1
121 361 -1
121 362 -1
121 376 -1
121 377 -1
121 378 -1
121 392 -1
121 393 -1
121 394 -1
122 122 2.6E1
122 123 -1
122 137 -1
122 138 -1
122 139 -1
122 361 -1
122 362 -1
122 363 -1
122 377 -1
122 378 -1
122 379 -1
122 393 -1
122 394 -1
122 395 -1
123 123 2.6E1
123 124 -1
123 138 -1
123 139 -1
123 140 -1
123 362 -1
123 363 -1
123 364 -1
123 378 -1
123 379 -1
123 380 -1
123 394 -1
123 395 -1
123 396 -1
124 124 2.6E1
124 125 -1
124 139 -1
124 140 -1
124 141 -1
124 363 -1
124 364 -1
124 365 -1
124 379 -1
124 380 -1
124 381 -1
124 395 -1
124 396 -1
124 397 -1
125 125 2.6E1
125 126 -1
125 140 -1
125 141 -1
125 142 -1
125 364 -1
125 365 -1
125 366 -1
125 380 -1
125 381 -1
125 382 -1
125 396 -1
125 397 -1
125 398 -1
126 126 2.6E1
126 127 -1
126 141 -1
126 142 -1
126 143 -1
126 365 -1
126 366 -1
126 367 -1
126 381 -1
126 382 -1
126 383 -1
126 397 -1
126 398 -1
126 399 -1
127 127 2.6E1
127 128 -1
127 142 -1
127 143 -1
127 144 -1
127 366 -1
127 367 -1
127 368 -1
127 382 -1
127 383 -1
127 384 -1
127 398 -1
127 399 -1
127 400 -1
128 128 2.6E1
128 143 -1
128 144 -1
128 367 -1
128 368 -1
128 383 -1
128 384 -1
128 399 -1
128 400 -1
129 129 2.6E1
129 130 -1
129 145 -1
129 146 -1
129 369 -1
129 370 -1
129 385 -1
129 386 -1
129 401 -1
129 402 -1
130 130 2.6E1
130 131 -1
130 145 -1
130 146 -1
130 147 -1
130 369 -1
130 370 -1
130 371 -1
130 385 -1
130 386 -1
130 387 -1
130 401 -1
130 402 -1
130 403 -1
131 131 2.6E1
131 132 -1
131 146 -1
131 147 -1
131 148 -1
131 370 -1
131 371 -1
131 372 -1
131 386 -1
131 387 -1
131 388 -1
131 402 -1
131 403 -1
131 404 -1
132 132 2.6E1
132 133 -1
132 147 -1
132 148 -1
132 149 -1
132 371 -1
132 372 -1
132 373 -1
132 387 -1
132 388 -1
132 389 -1
132 403 -1
132 404 -1
132 405 -1
133 133 2.6E1
133 134 -1
133 148 -1
133 149 -1
133 150 -1
133 372 -1
133 373 -1
133 374 -1
133 388 -1
133 389 -1
133 390 -1
133 404 -1
133 405 -1
133 406 -1
134 134 2.6E1
134 135 -1
134 149 -1
134 150 -1
134 151 -1
134 373 -1
134 374 -1
134 375 -1
134 389 -1
134 390 -1
134 391 -1
134 405 -1
134 406 -1
134 407 -1
135 135 2.6E1
135 136 -1
135 150 -1
135 151 -1
135 152 -1
135 374 -1
135 375 -1
135 376 -1
135 390 -1
135 391 -1
135 392 -1
135 406 -1
135 407 -1
135 408 -1
136 136 2.6E1
136 137 -1
136 151 -1
136 152 -1
136 153 -1
136 375 -1
136 376 -1
136 377 -1
136 391 -1
136 392 -1
136 393 -1
136 407 -1
136 408 -1
136 409 -1
137 137 2.6E1
137 138 -1
137 152 -1
137 153 -1
137 154 -1
137 376 -1
137 377 -1
137 378 -1
137 392 -1
137 393 -1
137 394 -1
137 408 -1
137 409 -1
137 410 -1
138 138 2.6E1
138 139 -1
138 153 -1
138 154 -1
138 155 -1
138 377 -1
138 378 -1
138 379 -1
138 393 -1
138 394 -1
138 395 -1
138 409 -1
138 410 -1
138 411 -1
139 139 2.6E1
139 140 -1
139 154 -1
139 155 -1
139 156 -1
139 378 -1
139 379 -1
139 380 -1
139 394 -1
139 395 -1
139 396 -1
139 410 -1
139 411 -1
139 412 -1
140 140 2.6E1
140 141 -1
140 155 -1
140 156 -1
140 157 -1
140 379 -1
140 380 -1
140 381 -1
140 395 -1
140 396 -1
140 397 -1
140 411 -1
140 412 -1
140 413 -1
141 141 2.6E1
141 142 -1
141 156 -1
141 157 -1
141 158 -1
141 380 -1
141 381 -1
141 382 -1
141 396 -1
141 397 -1
141 398 -1
141 412 -1
141 413 -1
141 414 -1
142 142 2.6E1
142 143 -1
142 157 -1
142 158 -1
142 159 -1
142 381 -1
142 382 -1
142 383 -1
142 397 -1
142 398 -1
142 399 -1
142 413 -1
142 414 -1
142 415 -1
143 143 2.6E1
143 144 -1
143 158 -1
143 159 -1
143 160 -1
143 382 -1
143 383 -1
143 384 -1
143 398 -1
143 399 -1
143 400 -1
143 414 -1
143 415 -1
143 416 -1
144 144 2.6E1
144 159 -1
144 160 -1
144 383 -1
144 384 -1
144 399 -1
144 400 -1
144 415 -1
144 416 -1
145 145 2.6E1
145 146 -1
145 161 -1
145 162 -1
145 385 -1
145 386 -1
145 401 -1
145 402 -1
145 417 -1
145 418 -1
146 146 2.6E1
146 147 -1
146 161 -1
146 162 -1
146 163 -1
146 385 -1
146 386 -1
146 387 -1
146 401 -1
146 402 -1
146 403 -1
146 417 -1
146 418 -1
146 419 -1
147 147 2.6E1
147 148 -1
147 162 -1
147 163 -1
147 164 -1
147 386 -1
147 387 -1
147 388 -1
147 402 -1
147 403 -1
147 404 -1
147 418 -1
147 419 -1
147 420 -1
148 148 2.6E1
148 149 -1
148 163 -1
148 164 -1
148 165 -1
148 387 -1
148 388 -1
148 389 -1
148 403 -1
148 404 -1
148 405 -1
148 419 -1
148 420 -1
148 421 -1
149 149 2.6E1
149 150 -1
149 164 -1
149 165 -1
149 166 -1
149 388 -1
149 389 -1
149 390 -1
149 404 -1
149 405 -1
149 406 -1
149 420 -1
149 421 -1
149 422 -1
150 150 2.6E1
150 151 -1
150 165 -1
150 166 -1
150 167 -1
150 389 -1
150 390 -1
150 391 -1
150 405 -1
150 406 -1
150 407 -1
150 421 -1
150 422 -1
150 423 -1
151 151 2.6E1
151 152 -1
151 166 -1
151 167 -1
151 168 -1
151 390 -1
151 391 -1
151 392 -1
151 406 -1
151 407 -1
151 408 -1
151 422 -1
151 423 -1
151 424 -1
152 152 2.6E1
152 153 -1
152 167 -1
152 168 -1
152 169 -1
152 391 -1
152 392 -1
152 393 -1
152 407 -1
152 408 -1
152 409 -1
152 423 -1
152 424 -1
152 425 -1
153 153 2.6E1
153 154 -1
153 168 -1
153 169 -1
153 170 -1
153 392 -1
153 393 -1
153 394 -1
153 408 -1
153 409 -1
153 410 -1
153 424 -1
153 425 -1
153 426 -1
154 154 2.6E1
154 155 -1
154 169 -1
154 170 -1
154 171 -1
154 393 -1
154 394 -1
154 395 -1
154 409 -1
154 410 -1
154 411 -1
154 425 -1
154 426 -1
154 427 -1
155 155 2.6E1
155 156 -1
155 170 -1
155 171 -1
155 172 -1
155 394 -1
155 395 -1
155 396 -1
155 410 -1
155 411 -1
155 412 -1
155 426 -1
155 427 -1
155 428 -1
156 156 2.6E1
156 157 -1
156 171 -1
156 172 -1
156 173 -1
156 395 -1
156 396 -1
156 397 -1
156 411 -1
156 412 -1
156 413 -1
156 427 -1
156 428 -1
156 429 -1
157 157 2.6E1
157 158 -1
157 172 -1
157 173 -1
157 174 -1
157 396 -1
157 397 -1
157 398 -1
157 412 -1
157 413 -1
157 414 -1
157 428 -1
157 429 -1
157 430 -1
158 158 2.6E1
158 159 -1
158 173 -1
158 174 -1
158 175 -1
158 397 -1
158 398 -1
158 399 -1
158 413 -1
158 414 -1
158 415 -1
158 429 -1
158 430 -1
158 431 -1
159 159 2.6E1
159 160 -1
159 174 -1
159 175 -1
159 176 -1
159 398 -1
159 399 -1
159 400 -1
159 414 -1
159 415 -1
159 416 -1
159 430 -1
159 431 -1
159 432 -1
160 160 2.6E1
160 175 -1
160 176 -1
160 399 -1
160 400 -1
160 415 -1
160 416 -1
160 431 -1
160 432 -1
161 161 2.6E1
161 162 -1
161 177 -1
161 178 -1
161 401 -1
161 402 -1
161 417 -1
161 418 -1
161 433 -1
161 434 -1
162 162 2.6E1
162 163 -1
162 177 -1
162 178 -1
162 179 -1
162 401 -1
162 402 -1
162 403 -1
162 417 -1
162 418 -1
162 419 -1
162 433 -1
162 434 -1
162 435 -1
163 163 2.6E1
163 164 -1
163 178 -1
163 179 -1
163 180 -1
163 402 -1
163 403 -1
163 404 -1
163 418 -1
163 419 -1
163 420 -1
163 434 -1
163 435 -1
163 436 -1
164 164 2.6E1
164 165 -1
164 179 -1
164 180 -1
164 181 -1
164 403 -1
164 404 -1
164 405 -1
164 419 -1
164 420 -1
164 421 -1
164 435 -1
164 436 -1
164 437 -1
165 165 2.6E1
165 166 -1
165 180 -1
165 181 -1
165 182 -1
165 404 -1
165 405 -1
165 406 -1
165 420 -1
165 421 -1
165 422 -1
165 436 -1
165 437 -1
165 438 -1
166 166 2.6E1
166 167 -1
166 181 -1
166 182 -1
166 183 -1
166 405 -1
166 406 -1
166 407 -1
166 421 -1
166 422 -1
166 423 -1
166 437 -1
166 438 -1
166 439 -1
167 167 2.6E1
167 168 -1
167 182 -1
167 183 -1
167 184 -1
167 406 -1
167 407 -1
167 408 -1
167 422 -1
167 423 -1
167 424 -1
167 438 -1
167 439 -1
167 440 -1
168 168 2.6E1
168 169 -1
168 183 -1
168 184 -1
168 185 -1
168 407 -1
168 408 -1
168 409 -1
168 423 -1
168 424 -1
168 425 -1
168 439 -1
168 440 -1
168 441 -1
169 169 2.6E1
169 170 -1
169 184 -1
169 185 -1
169 186 -1
169 408 -1
169 409 -1
169 410 -1
169 424 -1
169 425 -1
169 426 -1
169 440 -1
169 441 -1
169 442 -1
170 170 2.6E1
170 171 -1
170 185 -1
170 186 -1
170 187 -1
170 409 -1
170 410 -1
170 411 -1
170 425 -1
170 426 -1
170 427 -1
170 441 -1
170 442 -1
170 443 -1
171 171 2.6E1
171 172 -1
171 186 -1
171 187 -1
171 188 -1
171 410 -1
171 411 -1
171 412 -1
171 426 -1
171 427 -1
171 428 -1
171 442 -1
171 443 -1
171 444 -1
172 172 2.6E1
172 173 -1
172 187 -1
172 188 -1
172 189 -1
172 411 -1
172 412 -1
172 413 -1
172 427 -1
172 428 -1
172 429 -1
172 443 -1
172 444 -1
172 445 -1
173 173 2.6E1
173 174 -1
173 188 -1
173 189 -1
173 190 -1
173 412 -1
173 413 -1
173 414 -1
173 428 -1
173 429 -1
173 430 -1
173 444 -1
173 445 -1
173 446 -1
174 174 2.6E1
174 175 -1
174 189 -1
174 190 -1
174 191 -1
174 413 -1
174 414 -1
174 415 -1
174 429 -1
174 430 -1
174 431 -1
174 445 -1
174 446 -1
174 447 -1
175 175 2.6E1
175 176 -1
175 190 -1
175 191 -1
175 192 -1
175 414 -1
175 415 -1
175 416 -1
175 430 -1
175 431 -1
175 432 -1
175 446 -1
175 447 -1
175 448 -1
176 176 2.6E1
176 191 -1
176 192 -1
176 415 -1
176 416 -1
176 431 -1
176 432 -1
176 447 -1
176 448 -1
177 177 2.6E1
177 178 -1
177 193 -1
177 194 -1
177 417 -1
177 418 -1
177 433 -1
177 434 -1
177 449 -1
177 450 -1
178 178 2.6E1
178 179 -1
178 193 -1
178 194 -1
178 195 -1
178 417 -1
178 418 -1
178 419 -1
178 433 -1
178 434 -1
178 435 -1
178 449 -1
178 450 -1
178 451 -1
179 179 2.6E1
179 180 -1
179 194 -1
179 195 -1
179 196 -1
179 418 -1
179 419 -1
179 420 -1
179 434 -1
179 435 -1
179 436 -1
179 450 -1
179 451 -1
179 452 -1
180 180 2.6E1
180 181 -1
180 195 -1
180 196 -1
180 197 -1
180 419 -1
180 420 -1
180 421 -1
180 435 -1
180 436 -1
180 437 -1
180 451 -1
180 452 -1
180 453 -1
181 181 2.6E1
181 182 -1
181 196 -1
181 197 -1
181 198 -1
181 420 -1
181 421 -1
181 422 -1
181 436 -1
181 437 -1
181 438 -1
181 452 -1
181 453 -1
181 454 -1
182 182 2.6E1
182 183 -1
182 197 -1
182 198 -1
182 199 -1
182 421 -1
182 422 -1
182 423 -1
182 437 -1
182 438 -1
182 439 -1
182 453 -1
182 454 -1
182 455 -1
183 183 2.6E1
183 184 -1
183 198 -1
183 199 -1
183 200 -1
183 422 -1
183 423 -1
183 424 -1
183 438 -1
183 439 -1
183 440 -1
183 454 -1
183 455 -1
183 456 -1
184 184 2.6E1
184 185 -1
184 199 -1
184 200 -1
184 201 -1
184 423 -1
184 424 -1
184 425 -1
184 439 -1
184 440 -1
184 441 -1
184 455 -1
184 456 -1
184 457 -1
185 185 2.6E1
185 186 -1
185 200 -1
185 201 -1
185 202 -1
185 424 -1
185 425 -1
185 426 -1
185 440 -1
185 441 -1
185 442 -1
185 456 -1
185 457 -1
185 458 -1
186 186 2.6E1
186 187 -1
186 201 -1
186 202 -1
186 203 -1
186 425 -1
186 426 -1
186 427 -1
186 441 -1
186 442 -1
186 443 -1
186 457 -1
186 458 -1
186 459 -1
187 187 2.6E1
187 188 -1
187 202 -1
187 203 -1
187 204 -1
187 426 -1
187 427 -1
187 428 -1
187 442 -1
187 443 -1
187 444 -1
187 458 -1
187 459 -1
187 460 -1
188 188 2.6E1
188 189 -1
188 203 -1
188 204 -1
188 205 -1
188 427 -1
188 428 -1
188 429 -1
188 443 -1
188 444 -1
188 445 -1
188 459 -1
188 460 -1
188 461 -1
189 189 2.6E1
189 190 -1
189 204 -1
189 205 -1
189 206 -1
189 428 -1
189 429 -1
189 430 -1
189 444 -1
189 445 -1
189 446 -1
189 460 -1
189 461 -1
189 462 -1
190 190 2.6E1
190 191 -1
190 205 -1
190 206 -1
190 207 -1
190 429 -1
190 430 -1
190 431 -1
190 445 -1
190 446 -1
190 447 -1
190 461 -1
190 462 -1
190 463 -1
191 191 2.6E1
191 192 -1
191 206 -1
191 207 -1
191 208 -1
191 430 -1
191 431 -1
191 432 -1
191 446 -1
191 447 -1
191 448 -1
191 462 -1
191 463 -1
191 464 -1
192 192 2.6E1
192 207 -1
192 208 -1
192 431 -1
192 432 -1
192 447 -1
192 448 -1
192 463 -1
192 464 -1
193 193 2.6E1
193 194 -1
193 209 -1
193 210 -1
193 433 -1
193 434 -1
193 449 -1
193 450 -1
193 465 -1
193 466 -1
194 194 2.6E1
194 195 -1
194 209 -1
194 210 -1
194 211 -1
194 433 -1
194 434 -1
194 435 -1
194 449 -1
194 450 -1
194 451 -1
194 465 -1
194 466 -1
194 467 -1
195 195 2.6E1
195 196 -1
195 210 -1
195 211 -1
195 212 -1
195 434 -1
195 435 -1
195 436 -1
195 450 -1
195 451 -1
195 452 -1
195 466 -1
195 467 -1
195 468 -1
196 196 2.6E1
196 197 -1
196 211 -1
196 212 -1
196 213 -1
196 435 -1
196 436 -1
196 437 -1
196 451 -1
196 452 -1
196 453 -1
196 467 -1
196 468 -1
196 469 -1
197 197 2.6E1
197 198 -1
197 212 -1
197 213 -1
197 214 -1
197 436 -1
197 437 -1
197 438 -1
197 452 -1
197 453 -1
197 454 -1
197 468 -1
197 469 -1
197 470 -1
198 198 2.6E1
198 199 -1
198 213 -1
198 214 -1
198 215 -1
198 437 -1
198 438 -1
198 439 -1
198 453 -1
198 454 -1
198 455 -1
198 469 -1
198 470 -1
198 471 -1
199 199 2.6E1
199 200 -1
199 214 -1
199 215 -1
199 216 -1
199 438 -1
199 439 -1
199 440 -1
199 454 -1
199 455 -1
199 456 -1
199 470 -1
199 471 -1
199 472 -1
200 200 2.6E1
200 201 -1
200 215 -1
200 216 -1
200 217 -1
200 439 -1
200 440 -1
200 441 -1
200 455 -1
200 456 -1
200 457 -1
200 471 -1
200 472 -1
200 473 -1
201 201 2.6E1
201 202 -1
201 216 -1
201 217 -1
201 218 -1
201 440 -1
201 441 -1
201 442 -1
201 456 -1
201 457 -1
201 458 -1
201 472 -1
201 473 -1
201 474 -1
202 202 2.6E1
202 203 -1
202 217 -1
202 218 -1
202 219 -1
202 441 -1
202 442 -1
202 443 -1
202 457 -1
202 458 -1
202 459 -1
202 473 -1
202 474 -1
202 475 -1
203 203 2.6E1
203 204 -1
203 218 -1
203 219 -1
203 220 -1
203 442 -1
203 443 -1
203 444 -1
203 458 -1
203 459 -1
203 460 -1
203 474 -1
203 475 -1
203 476 -1
204 204 2.6E1
204 205 -1
204 219 -1
204 220 -1
204 221 -1
204 443 -1
204 444 -1
204 445 -1
204 459 -1
204 460 -1
204 461 -1
204 475 -1
204 476 -1
204 477 -1
205 205 2.6E1
205 206 -1
205 220 -1
205 221 -1
205 222 -1
205 444 -1
205 445 -1
205 446 -1
205 460 -1
205 461 -1
205 462 -1
205 476 -1
205 477 -1
205 478 -1
206 206 2.6E1
206 207 -1
206 221 -1
206 222 -1
206 223 -1
206 445 -1
206 446 -1
206 447 -1
206 461 -1
206 462 -1
206 463 -1
206 477 -1
206 478 -1
206 479 -1
207 207 2.6E1
207 208 -1
207 222 -1
207 223 -1
207 224 -1
207 446 -1
207 447 -1
207 448 -1
207 462 -1
207 463 -1
207 464 -1
207 478 -1
207 479 -1
207 480 -1
208 208 2.6E1
208 223 -1
208 224 -1
208 447 -1
208 448 -1
208 463 -1
208 464 -1
208 479 -1
208 480 -1
209 209 2.6E1
209 210 -1
209 225 -1
209 226 -1
209 449 -1
209 450 -1
209 465 -1
209 466 -1
209 481 -1
209 482 -1
210 210 2.6E1
210 211 -1
210 225 -1
210 226 -1
210 227 -1
210 449 -1
210 450 -1
210 451 -1
210 465 -1
210 466 -1
210 467 -1
210 481 -1
210 482 -1
210 483 -1
211 211 2.6E1
211 212 -1
211 226 -1
211 227 -1
211 228 -1
211 450 -1
211 451 -1
211 452 -1
211 466 -1
211 467 -1
211 468 -1
211 482 -1
211 483 -1
211 484 -1
212 212 2.6E1
212 213 -1
212 227 -1
212 228 -1
212 229 -1
212 451 -1
212 452 -1
212 453 -1
212 467 -1
212 468 -1
212 469 -1
212 483 -1
212 484 -1
212 485 -1
213 213 2.6E1
213 214 -1
213 228 -1
213 229 -1
213 230 -1
213 452 -1
213 453 -1
213 454 -1
213 468 -1
213 469 -1
213 470 -1
213 484 -1
213 485 -1
213 486 -1
214 214 2.6E1
214 215 -1
214 229 -1
214 230 -1
214 231 -1
214 453 -1
214 454 -1
214 455 -1
214 469 -1
214 470 -1
214 471 -1
214 485 -1
214 486 -1
214 487 -1
215 215 2.6E1
215 216 -1
215 230 -1
215 231 -1
215 232 -1
215 454 -1
215 455 -1
215 456 -1
215 470 -1
215 471 -1
215 472 -1
215 486 -1
215 487 -1
215 488 -1
216 216 2.6E1
216 217 -1
216 231 -1
216 232 -1
216 233 -1
216 455 -1
216 456 -1
216 457 -1
216 471 -1
216 472 -1
216 473 -1
216 487 -1
216 488 -1
216 489 -1
217 217 2.6E1
217 218 -1
217 232 -1
217 233 -1
217 234 -1
217 456 -1
217 457 -1
217 458 -1
217 472 -1
217 473 -1
217 474 -1
217 488 -1
217 489 -1
217 490 -1
218 218 2.6E1
218 219 -1
218 233 -1
218 234 -1
218 235 -1
218 457 -1
218 458 -1
218 459 -1
218 473 -1
218 474 -1
218 475 -1
218 489 -1
218 490 -1
218 491 -1
219 219 2.6E1
219 220 -1
219 234 -1
219 235 -1
219 236 -1
219 458 -1
219 459 -1
219 460 -1
219 474 -1
219 475 -1
219 476 -1
219 490 -1
219 491 -1
219 492 -1
220 220 2.6E1
220 221 -1
220 235 -1
220 236 -1
220 237 -1
220 459 -1
220 460 -1
220 461 -1
220 475 -1
220 476 -1
220 477 -1
220 491 -1
220 492 -1
220 493 -1
221 221 2.6E1
221 222 -1
221 236 -1
221 237 -1
221 238 -1
221 460 -1
221 461 -1
221 462 -1
221 476 -1
221 477 -1
221 478 -1
221 492 -1
221 493 -1
221 494 -1
222 222 2.6E1
222 223 -1
222 237 -1
222 238 -1
222 239 -1
222 461 -1
222 462 -1
222 463 -1
222 477 -1
222 478 -1
222 479 -1
222 493 -1
222 494 -1
222 495 -1
223 223 2.6E1
223 224 -1
223 238 -1
223 239 -1
223 240 -1
223 462 -1
223 463 -1
223 464 -1
223 478 -1
223 479 -1
223 480 -1
223 494 -1
223 495 -1
223 496 -1
224 224 2.6E1
224 239 -1
224 240 -1
224 463 -1
224 464 -1
224 479 -1
224 480 -1
224 495 -1
224 496 -1
225 225 2.6E1
225 226 -1
225 241 -1
225 242 -1
225 465 -1
225 466 -1
225 481 -1
225 482 -1
225 497 -1
225 498 -1
226 226 2.6E1
226 227 -1
226 241 -1
226 242 -1
226 243 -1
226 465 -1
226 466 -1
226 467 -1
226 481 -1
226 482 -1
226 483 -1
226 497 -1
226 498 -1
226 499 -1
227 227 2.6E1
227 228 -1
227 242 -1
227 243 -1
227 244 -1
227 466 -1
227 467 -1
227 468 -1
227 482 -1
227 483 -1
227 484 -1
227 498 -1
227 499 -1
227 500 -1
228 228 2.6E1
228 229 -1
228 243 -1
228 244 -1
228 245 -1
228 467 -1
228 468 -1
228 469 -1
228 483 -1
228 484 -1
228 485 -1
228 499 -1
228 500 -1
228 501 -1
229 229 2.6E1
229 230 -1
229 244 -1
229 245 -1
229 246 -1
229 468 -1
229 469 -1
229 470 -1
229 484 -1
229 485 -1
229 486 -1
229 500 -1
229 501 -1
229 502 -1
230 230 2.6E1
230 231 -1
230 245 -1
230 246 -1
230 247 -1
230 469 -1
230 470 -1
230 471 -1
230 485 -1
230 486 -1
230 487 -1
230 501 -1
230 502 -1
230 503 -1
231 231 2.6E1
231 232 -1
231 246 -1
231 247 -1
231 248 -1
231 470 -1
231 471 -1
231 472 -1
231 486 -1
231 487 -1
231 488 -1
231 502 -1
231 503 -1
231 504 -1
232 232 2.6E1
232 233 -1
232 247 -1
232 248 -1
232 249 -1
232 471 -1
232 472 -1
232 473 -1
232 487 -1
232 488 -1
232 489 -1
232 503 -1
232 504 -1
232 505 -1
233 233 2.6E1
233 234 -1
233 248 -1
233 249 -1
233 250 -1
233 472 -1
233 473 -1
233 474 -1
233 488 -1
233 489 -1
233 490 -1
233 504 -1
233 505 -1
233 506 -1
234 234 2.6E1
234 235 -1
234 249 -1
234 250 -1
234 251 -1
234 473 -1
234 474 -1
234 475 -1
234 489 -1
234 490 -1
234 491 -1
234 505 -1
234 506 -1
234 507 -1
235 235 2.6E1
235 236 -1
235 250 -1
235 251 -1
235 252 -1
235 474 -1
235 475 -1
235 476 -1
235 490 -1
235 491 -1
235 492 -1
235 506 -1
235 507 -1
235 508 -1
236 236 2.6E1
236 237 -1
236 251 -1
236 252 -1
236 253 -1
236 475 -1
236 476 -1
236 477 -1
236 491 -1
236 492 -1
236 493 -1
236 507 -1
236 508 -1
236 509 -1
237 237 2.6E1
237 238 -1
237 252 -1
237 253 -1
237 254 -1
237 476 -1
237 477 -1
237 478 -1
237 492 -1
237 493 -1
237 494 -1
237 508 -1
237 509 -1
237 510 -1
238 238 2.6E1
238 239 -1
238 253 -1
238 254 -1
238 255 -1
238 477 -1
238 478 -1
238 479 -1
238 493 -1
238 494 -1
238 495 -1
238 509 -1
238 510 -1
238 511 -1
239 239 2.6E1
239 240 -1
239 254 -1
239 255 -1
239 256 -1
239 478 -1
239 479 -1
239 480 -1
239 494 -1
239 495 -1
239 496 -1
239 510 -1
239 511 -1
239 512 -1
240 240 2.6E1
240 255 -1
240 256 -1
240 479 -1
240 480 -1
240 495 -1
240 496 -1
240 511 -1
240 512 -1
241 241 2.6E1
241 242 -1
241 481 -1
241 482 -1
241 497 -1
241 498 -1
242 242 2.6E1
242 243 -1
242 481 -1
242 482 -1
242 483 -1
242 497 -1
242 498 -1
242 499 -1
243 243 2.6E1
243 244 -1
243 482 -1
243 483 -1
243 484 -1
243 498 -1
243 499 -1
243 500 -1
244 244 2.6E1
244 245 -1
244 483 -1
244 484 -1
244 485 -1
244 499 -1
244 500 -1
244 501 -1
245 245 2.6E1
245 246 -1
245 484 -1
245 485 -1
245 486 -1
245 500 -1
245 501 -1
245 502 -1
246 246 2.6E1
246 247 -1
246 485 -1
246 486 -1
246 487 -1
246 501 -1
246 502 -1
246 503 -1
247 247 2.6E1
247 248 -1
247 486 -1
247 487 -1
247 488 -1
247 502 -1
247 503 -1
247 504 -1
248 248 2.6E1
248 249 -1
248 487 -1
248 488 -1
248 489 -1
248 503 -1
248 504 -1
248 505 -1
249 249 2.6E1
249 250 -1
249 488 -1
249 489 -1
249 490 -1
249 504 -1
249 505 -1
249 506 -1
250 250 2.6E1
250 251 -1
250 489 -1
250 490 -1
250 491 -1
250 505 -1
250 506 -1
250 507 -1
251 251 2.6E1
251 252 -1
251 490 -1
251 491 -1
251 492 -1
251 506 -1
251 507 -1
251 508 -1
252 252 2.6E1
252 253 -1
252 491 -1
252 492 -1
252 493 -1
252 507 -1
252 508 -1
252 509 -1
253 253 2.6E1
253 254 -1
253 492 -1
253 493 -1
253 494 -1
253 508 -1
253 509 -1
253 510 -1
254 254 2.6E1
254 255 -1
254 493 -1
254 494 -1
254 495 -1
254 509 -1
254 510 -1
254 511 -1
255 255 2.6E1
255 256 -1
255 494 -1
255 495 -1
255 496 -1
255 510 -1
255 511 -1
255 512 -1
256 256 2.6E1
256 495 -1
256 496 -1
256 511 -1
256 512 -1
257 257 2.6E1
257 258 -1
257 273 -1
257 274 -1
257 513 -1
257 514 -1
257 529 -1
257 530 -1
258 258 2.6E1
258 259 -1
258 273 -1
258 274 -1
258 275 -1
258 513 -1
258 514 -1
258 515 -1
258 529 -1
258 530 -1
258 531 -1
259 259 2.6E1
259 260 -1
259 274 -1
259 275 -1
259 276 -1
259 514 -1
259 515 -1
259 516 -1
259 530 -1
259 531 -1
259 532 -1
260 260 2.6E1
260 261 -1
260 275 -1
260 276 -1
260 277 -1
260 515 -1
260 516 -1
260 517 -1
260 531 -1
260 532 -1
260 533 -1
261 261 2.6E1
261 262 -1
261 276 -1
261 277 -1
261 278 -1
261 516 -1
261 517 -1
261 518 -1
261 532 -1
261 533 -1
261 534 -1
262 262 2.6E1
262 263 -1
262 277 -1
262 278 -1
262 279 -1
262 517 -1
262 518 -1
262 519 -1
262 533 -1
262 534 -1
262 535 -1
263 263 2.6E1
263 264 -1
263 278 -1
263 279 -1
263 280 -1
263 518 -1
263 519 -1
263 520 -1
263 534 -1
263 535 -1
263 536 -1
264 264 2.6E1
264 265 -1
264 279 -1
264 280 -1
264 281 -1
264 519 -1
264 520 -1
264 521 -1
264 535 -1
264 536 -1
264 537 -1
265 265 2.6E1
265 266 -1
265 280 -1
265 281 -1
265 282 -1
265 520 -1
265 521 -1
265 522 -1
265 536 -1
265 537 -1
265 538 -1
266 266 2.6E1
266 267 -1
266 281 -1
266 282 -1
266 283 -1
266 521 -1
266 522 -1
266 523 -1
266 537 -1
266 538 -1
266 539 -1
267 267 2.6E1
267 268 -1
267 282 -1
267 283 -1
267 284 -1
267 522 -1
267 523 -1
267 524 -1
267 538 -1
267 539 -1
267 540 -1
268 268 2.6E1
268 269 -1
268 283 -1
268 284 -1
268 285 -1
268 523 -1
268 524 -1
268 525 -1
268 539 -1
268 540 -1
268 541 -1
269 269 2.6E1
269 270 -1
269 284 -1
269 285 -1
269 286 -1
269 524 -1
269 525 -1
269 526 -1
269 540 -1
269 541 -1
269 542 -1
270 270 2.6E1
270 271 -1
270 285 -1
270 286 -1
270 287 -1
270 525 -1
270 526 -1
270 527 -1
270 541 -1
270 542 -1
270 543 -1
271 271 2.6E1
271 272 -1
271 286 -1
271 287 -1
271 288 -1
271 526 -1
271 527 -1
271 528 -1
271 542 -1
271 543 -1
271 544 -1
272 272 2.6E1
272 287 -1
272 288 -1
272 527 -1
272 528 -1
272 543 -1
272 544 -1
273 273 2.6E1
273 274 -1
273 289 -1
273 290 -1
273 513 -1
273 514 -1
273 529 -1
273 530 -1
273 545 -1
273 546 -1
274 274 2.6E1
274 275 -1
274 289 -1
274 290 -1
274 291 -1
274 513 -1
274 514 -1
274 515 -1
274 529 -1
274 530 -1
274 531 -1
274 545 -1
274 546 -1
274 547 -1
275 275 2.6E1
275 276 -1
275 290 -1
275 291 -1
275 292 -1
275 514 -1
275 515 -1
275 516 -1
275 530 -1
275 531 -1
275 532 -1
275 546 -1
275 547 -1
275 548 -1
276 276 2.6E1
276 277 -1
276 291 -1
276 292 -1
276 293 -1
276 515 -1
276 516 -1
276 517 -1
276 531 -1
276 532 -1
276 533 -1
276 547 -1
276 548 -1
276 549 -1
277 277 2.6E1
277 278 -1
277 292 -1
277 293 -1
277 294 -1
277 516 -1
277 517 -1
277 518 -1
277 532 -1
277 533 -1
277 534 -1
277 548 -1
277 549 -1
277 550 -1
278 278 2.6E1
278 279 -1
278 293 -1
278 294 -1
278 295 -1
278 517 -1
278 518 -1
278 519 -1
278 533 -1
278 534 -1
278 535 -1
278 549 -1
278 550 -1
278 551 -1
279 279 2.6E1
279 280 -1
279 294 -1
279 295 -1
279 296 -1
279 518 -1
279 519 -1
279 520 -1
279 534 -1
279 535 -1
279 536 -1
279 550 -1
279 551 -1
279 552 -1
280 280 2.6E1
280 281 -1
280 295 -1
280 296 -1
280 297 -1
280 519 -1
280 520 -1
280 521 -1
280 535 -1
280 536 -1
280 537 -1
280 551 -1
280 552 -1
280 553 -1
281 281 2.6E1
281 282 -1
281 296 -1
281 297 -1
281 298 -1
281 520 -1
281 521 -1
281 522 -1
281 536 -1
281 537 -1
281 538 -1
281 552 -1
281 553 -1
281 554 -1
282 282 2.6E1
282 283 -1
282 297 -1
282 298 -1
282 299 -1
282 521 -1
282 522 -1
282 523 -1
282 537 -1
282 538 -1
282 539 -1
282 553 -1
282 554 -1
282 555 -1
283 283 2.6E1
283 284 -1
283 298 -1
283 299 -1
283 300 -1
283 522 -1
283 523 -1
283 524 -1
283 538 -1
283 539 -1
283 540 -1
283 554 -1
283 555 -1
283 556 -1
284 284 2.6E1
284 285 -1
284 299 -1
284 300 -1
284 301 -1
284 523 -1
284 524 -1
284 525 -1
284 539 -1
284 540 -1
284 541 -1
284 555 -1
284 556 -1
284 557 -1
285 285 2.6E1
285 286 -1
285 300 -1
285 301 -1
285 302 -1
285 524 -1
285 525 -1
285 526 -1
285 540 -1
285 541 -1
285 542 -1
285 556 -1
285 557 -1
285 558 -1
286 286 2.6E1
286 287 -1
286 301 -1
286 302 -1
286 303 -1
286 525 -1
286 526 -1
286 527 -1
286 541 -1
286 542 -1
286 543 -1
286 557 -1
286 558 -1
286 559 -1
287 287 2.6E1
287 288 -1
287 302 -1
287 303 -1
287 304 -1
287 526 -1
287 527 -1
287 528 -1
287 542 -1
287 543 -1
287 544 -1
287 558 -1
287 559 -1
287 560 -1
288 288 2.6E1
288 303 -1
288 304 -1
288 527 -1
288 528 -1
288 543 -1
288 544 -1
288 559 -1
288 560 -1
289 289 2.6E1
289 290 -1
289 305 -1
289 306 -1
289 529 -1
289 530 -1
289 545 -1
289 546 -1
289 561 -1
289 562 -1
290 290 2.6E1
290 291 -1
290 305 -1
290 306 -1
290 307 -1
290 529 -1
290 530 -1
290 531 -1
290 545 -1
290 546 -1
290 547 -1
290 561 -1
290 562 -1
290 563 -1
291 291 2.6E1
291 292 -1
291 306 -1
291 307 -1
291 308 -1
291 530 -1
291 531 -1
291 532 -1
291 546 -1
291 547 -1
291 548 -1
291 562 -1
291 563 -1
291 564 -1
292 292 2.6E1
292 293 -1
292 307 -1
292 308 -1
292 309 -1
292 531 -1
292 532 -1
292 533 -1
292 547 -1
292 548 -1
292 549 -1
292 563 -1
292 564 -1
292 565 -1
293 293 2.6E1
293 294 -1
293 308 -1
293 309 -1
293 310 -1
293 532 -1
293 533 -1
293 534 -1
293 548 -1
293 549 -1
293 550 -1
293 564 -1
293 565 -1
293 566 -1
294 294 2.6E1
294 295 -1
294 309 -1
294 310 -1
294 311 -1
294 533 -1
294 534 -1
294 535 -1
294 549 -1
294 550 -1
294 551 -1
294 565 -1
294 566 -1
294 567 -1
295 295 2.6E1
295 296 -1
295 310 -1
295 311 -1
295 312 -1
295 534 -1
295 535 -1
295 536 -1
295 550 -1
295 551 -1
295 552 -1
295 566 -1
295 567 -1
295 568 -1
296 296 2.6E1
296 297 -1
296 311 -1
296 312 -1
296 313 -1
296 535 -1
296 536 -1
296 537 -1
296 551 -1
296 552 -1
296 553 -1
296 567 -1
296 568 -1
296 569 -1
297 297 2.6E1
297 298 -1
297 312 -1
297 313 -1
297 314 -1
297 536 -1
297 537 -1
297 538 -1
297 552 -1
297 553 -1
297 554 -1
297 568 -1
297 569 -1
297 570 -1
298 298 2.6E1
298 299 -1
298 313 -1
298 314 -1
298 315 -1
298 537 -1
298 538 -1
298 539 -1
298 553 -1
298 554 -1
298 555 -1
298 569 -1
298 570 -1
298 571 -1
299 299 2.6E1
299 300 -1
299 314 -1
299 315 -1
299 316 -1
299 538 -1
299 539 -1
299 540 -1
299 554 -1
299 555 -1
299 556 -1
299 570 -1
299 571 -1
299 572 -1
300 300 2.6E1
300 301 -1
300 315 -1
300 316 -1
300 317 -1
300 539 -1
300 540 -1
300 541 -1
300 555 -1
300 556 -1
300 557 -1
300 571 -1
300 572 -1
300 573 -1
301 301 2.6E1
301 302 -1
301 316 -1
301 317 -1
301 318 -1
301 540 -1
301 541 -1
301 542 -1
301 556 -1
301 557 -1
301 558 -1
301 572 -1
301 573 -1
301 574 -1
302 302 2.6E1
302 303 -1
302 317 -1
302 318 -1
302 319 -1
302 541 -1
302 542 -1
302 543 -1
302 557 -1
302 558 -1
302 559 -1
302 573 -1
302 574 -1
302 575 -1
303 303 2.6E1
303 304 -1
303 318 -1
303 319 -1
303 320 -1
303 542 -1
303 543 -1
303 544 -1
303 558 -1
303 559 -1
303 560 -1
303 574 -1
303 575 -1
303 576 -1
304 304 2.6E1
304 319 -1
304 320 -1
304 543 -1
304 544 -1
304 559 -1
304 560 -1
304 575 -1
304 576 -1
305 305 2.6E1
305 306 -1
305 321 -1
305 322 -1
305 545 -1
305 546 -1
305 561 -1
305 562 -1
305 577 -1
305 578 -1
306 306 2.6E1
306 307 -1
306 321 -1
306 322 -1
306 323 -1
306 545 -1
306 546 -1
306 547 -1
306 561 -1
306 562 -1
306 563 -1
306 577 -1
306 578 -1
306 579 -1
307 307 2.6E1
307 308 -1
307 322 -1
307 323 -1
307 324 -1
307 546 -1
307 547 -1
307 548 -1
307 562 -1
307 563 -1
307 564 -1
307 578 -1
307 579 -1
307 580 -1
308 308 2.6E1
308 309 -1
308 323 -1
308 324 -1
308 325 -1
308 547 -1
308 548 -1
308 549 -1
308 563 -1
308 564 -1
308 565 -1
308 579 -1
308 580 -1
308 581 -1
309 309 2.6E1
309 310 -1
309 324 -1
309 325 -1
309 326 -1
309 548 -1
309 549 -1
309 550 -1
309 564 -1
309 565 -1
309 566 -1
309 580 -1
309 581 -1
309 582 -1
310 310 2.6E1
310 311 -1
310 325 -1
310 326 -1
310 327 -1
310 549 -1
310 550 -1
310 551 -1
310 565 -1
310 566 -1
310 567 -1
310 581 -1
310 582 -1
310 583 -1
311 311 2.6E1
311 312 -1
311 326 -1
311 327 -1
311 328 -1
311 550 -1
311 551 -1
311 552 -1
311 566 -1
311 567 -1
311 568 -1
311 582 -1
311 583 -1
311 584 -1
312 312 2.6E1
312 313 -1
312 327 -1
312 328 -1
312 329 -1
312 551 -1
312 552 -1
312 553 -1
312 567 -1
312 568 -1
312 569 -1
312 583 -1
312 584 -1
312 585 -1
313 313 2.6E1
313 314 -1
313 328 -1
313 329 -1
313 330 -1
313 552 -1
313 553 -1
313 554 -1
313 568 -1
313 569 -1
313 570 -1
313 584 -1
313 585 -1
313 586 -1
314 314 2.6E1
314 315 -1
314 329 -1
314 330 -1
314 331 -1
314 553 -1
314 554 -1
314 555 -1
314 569 -1
314 570 -1
314 571 -1
314 585 -1
314 586 -1
314 587 -1
315 315 2.6E1
315 316 -1
315 330 -1
315 331 -1
315 332 -1
315 554 -1
315 555 -1
315 556 -1
315 570 -1
315 571 -1
315 572 -1
315 586 -1
315 587 -1
315 588 -1
316 316 2.6E1
316 317 -1
316 331 -1
316 332 -1
316 333 -1
316 555 -1
316 556 -1
316 557 -1
316 571 -1
316 572 -1
316 573 -1
316 587 -1
316 588 -1
316 589 -1
317 317 2.6E1
317 318 -1
317 332 -1
317 333 -1
317 334 -1
317 556 -1
317 557 -1
317 558 -1
317 572 -1
317 573 -1
317 574 -1
317 588 -1
317 589 -1
317 590 -1
318 318 2.6E1
318 319 -1
318 333 -1
318 334 -1
318 335 -1
318 557 -1
318 558 -1
318 559 -1
318 573 -1
318 574 -1
318 575 -1
318 589 -1
318 590 -1
318 591 -1
319 319 2.6E1
319 320 -1
319 334 -1
319 335 -1
319 336 -1
319 558 -1
319 559 -1
319 560 -1
319 574 -1
319 575 -1
319 576 -1
319 590 -1
319 591 -1
319 592 -1
320 320 2.6E1
320 335 -1
320 336 -1
320 559 -1
320 560 -1
320 575 -1
320 576 -1
320 591 -1
320 592 -1
321 321 2.6E1
321 322 -1
321 337 -1
321 338 -1
321 561 -1
321 562 -1
321 577 -1
321 578 -1
321 593 -1
321 594 -1
322 322 2.6E1
322 323 -1
322 337 -1
322 338 -1
322 339 -1
322 561 -1
322 562 -1
322 563 -1
322 577 -1
322 578 -1
322 579 -1
322 593 -1
322 594 -1
322 595 -1
323 323 2.6E1
323 324 -1
323 338 -1
323 339 -1
323 340 -1
323 562 -1
323 563 -1
323 564 -1
323 578 -1
323 579 -1
323 580 -1
323 594 -1
323 595 -1
323 596 -1
324 324 2.6E1
324 325 -1
324 339 -1
324 340 -1
324 341 -1
324 563 -1
324 564 -1
324 565 -1
324 579 -1
324 580 -1
324 581 -1
324 595 -1
324 596 -1
324 597 -1
325 325 2.6E1
325 326 -1
325 340 -1
325 341 -1
325 342 -1
325 564 -1
325 565 -1
325 566 -1
325 580 -1
325 581 -1
325 582 -1
325 596 -1
325 597 -1
325 598 -1
326 326 2.6E1
326 327 -1
326 341 -1
326 342 -1
326 343 -1
326 565 -1
326 566 -1
326 567 -1
326 581 -1
326 582 -1
326 583 -1
326 597 -1
326 598 -1
326 599 -1
327 327 2.6E1
327 328 -1
327 342 -1
327 343 -1
327 344 -1
327 566 -1
327 567 -1
327 568 -1
327 582 -1
327 583 -1
327 584 -1
327 598 -1
327 599 -1
327 600 -1
328 328 2.6E1
328 329 -1
328 343 -1
328 344 -1
328 345 -1
328 567 -1
328 568 -1
328 569 -1
328 583 -1
328 584 -1
328 585 -1
328 599 -1
328 600 -1
328 601 -1
329 329 2.6E1
329 330 -1
329 344 -1
329 345 -1
329 346 -1
329 568 -1
329 569 -1
329 570 -1
329 584 -1
329 585 -1
329 586 -1
329 600 -1
329 601 -1
329 602 -1
330 330 2.6E1
330 331 -1
330 345 -1
330 346 -1
330 347 -1
330 569 -1
330 570 -1
330 571 -1
330 585 -1
330 586 -1
330 587 -1
330 601 -1
330 602 -1
330 603 -1
331 331 2.6E1
331 332 -1
331 346 -1
331 347 -1
331 348 -1
331 570 -1
331 571 -1
331 572 -1
331 586 -1
331 587 -1
331 588 -1
331 602 -1
331 603 -1
331 604 -1
332 332 2.6E1
332 333 -1
332 347 -1
332 348 -1
332 349 -1
332 571 -1
332 572 -1
332 573 -1
332 587 -1
332 588 -1
332 589 -1
332 603 -1
332 604 -1
332 605 -1
333 333 2.6E1
333 334 -1
333 348 -1
333 349 -1
333 350 -1
333 572 -1
333 573 -1
333 574 -1
333 588 -1
333 589 -1
333 590 -1
333 604 -1
333 605 -1
333 606 -1
334 334 2.6E1
334 335 -1
334 349 -1
334 350 -1
334 351 -1
334 573 -1
334 574 -1
334 575 -1
334 589 -1
334 590 -1
334 591 -1
334 605 -1
334 606 -1
334 607 -1
335 335 2.6E1
335 336 -1
335 350 -1
335 351 -1
335 352 -1
335 574 -1
335 575 -1
335 576 -1
335 590 -1
335 591 -1
335 592 -1
335 606 -1
335 607 -1
335 608 -1
336 336 2.6E1
336 351 -1
336 352 -1
336 575 -1
336 576 -1
336 591 -1
336 592 -1
336 607 -1
336 608 -1
337 337 2.6E1
337 338 -1
337 353 -1
337 354 -1
337 577 -1
337 578 -1
337 593 -1
337 594 -1
337 609 -1
337 610 -1
338 338 2.6E1
338 339 -1
338 353 -1
338 354 -1
338 355 -1
338 577 -1
338 578 -1
338 579 -1
338 593 -1
338 594 -1
338 595 -1
338 609 -1
338 610 -1
338 611 -1
339 339 2.6E1
339 340 -1
339 354 -1
339 355 -1
339 356 -1
339 578 -1
339 579 -1
339 580 -1
339 594 -1
339 595 -1
339 596 -1
339 610 -1
339 611 -1
339 612 -1
340 340 2.6E1
340 341 -1
340 355 -1
340 356 -1
340 357 -1
340 579 -1
340 580 -1
340 581 -1
340 595 -1
340 596 -1
340 597 -1
340 611 -1
340 612 -1
340 613 -1
341 341 2.6E1
341 342 -1
341 356 -1
341 357 -1
341 358 -1
341 580 -1
341 581 -1
341 582 -1
341 596 -1
341 597 -1
341 598 -1
341 612 -1
341 613 -1
341 614 -1
342 342 2.6E1
342 343 -1
342 357 -1
342 358 -1
342 359 -1
342 581 -1
342 582 -1
342 583 -1
342 597 -1
342 598 -1
342 599 -1
342 613 -1
342 614 -1
342 615 -1
343 343 2.6E1
343 344 -1
343 358 -1
343 359 -1
343 360 -1
343 582 -1
343 583 -1
343 584 -1
343 598 -1
343 599 -1
343 600 -1
343 614 -1
343 615 -1
343 616 -1
344 344 2.6E1
344 345 -1
344 359 -1
344 360 -1
344 361 -1
344 583 -1
344 584 -1
344 585 -1
344 599 -1
344 600 -1
344 601 -1
344 615 -1
344 616 -1
344 617 -1
345 345 2.6E1
345 346 -1
345 360 -1
345 361 -1
345 362 -1
345 584 -1
345 585 -1
345 586 -1
345 600 -1
345 601 -1
345 602 -1
345 616 -1
345 617 -1
345 618 -1
346 346 2.6E1
346 347 -1
346 361 -1
346 362 -1
346 363 -1
346 585 -1
346 586 -1
346 587 -1
346 601 -1
346 602 -1
346 603 -1
346 617 -1
346 618 -1
346 619 -1
347 347 2.6E1
347 348 -1
347 362 -1
347 363 -1
347 364 -1
347 586 -1
347 587 -1
347 588 -1
347 602 -1
347 603 -1
347 604 -1
347 618 -1
347 619 -1
347 620 -1
348 348 2.6E1
348 349 -1
348 363 -1
348 364 -1
348 365 -1
348 587 -1
348 588 -1
348 589 -1
348 603 -1
348 604 -1
348 605 -1
348 619 -1
348 620 -1
348 621 -1
349 349 2.6E1
349 350 -1
349 364 -1
349 365 -1
349 366 -1
349 588 -1
349 589 -1
349 590 -1
349 604 -1
349 605 -1
349 606 -1
349 620 -1
349 621 -1
349 622 -1
350 350 2.6E1
350 351 -1
350 365 -1
350 366 -1
350 367 -1
350 589 -1
350 590 -1
350 591 -1
350 605 -1
350 606 -1
350 607 -1
350 621 -1
350 622 -1
350 623 -1
351 351 2.6E1
351 352 -1
351 366 -1
351 367 -1
351 368 -1
351 590 -1
351 591 -1
351 592 -1
351 606 -1
351 607 -1
351 608 -1
351 622 -1
351 623 -1
351 624 -1
352 352 2.6E1
352 367 -1
352 368 -1
352 591 -1
352 592 -1
352 607 -1
352 608 -1
352 623 -1
352 624 -1
353 353 2.6E1
353 354 -1
353 369 -1
353 370 -1
353 593 -1
353 594 -1
353 609 -1
353 610 -1
353 625 -1
353 626 -1
354 354 2.6E1
354 355 -1
354 369 -1
354 370 -1
354 371 -1
354 593 -1
354 594 -1
354 595 -1
354 609 -1
354 610 -1
354 611 -1
354 625 -1
354 626 -1
354 627 -1
355 355 2.6E1
355 356 -1
355 370 -1
355 371 -1
355 372 -1
355 594 -1
355 595 -1
355 596 -1
355 610 -1
355 611 -1
355 612 -1
355 626 -1
355 627 -1
355 628 -1
356 356 2.6E1
356 357 -1
356 371 -1
356 372 -1
356 373 -1
356 595 -1
356 596 -1
356 597 -1
356 611 -1
356 612 -1
356 613 -1
356 627 -1
356 628 -1
356 629 -1
357 357 2.6E1
357 358 -1
357 372 -1
357 373 -1
357 374 -1
357 596 -1
357 597 -1
357 598 -1
357 612 -1
357 613 -1
357 614 -1
357 628 -1
357 629 -1
357 630 -1
358 358 2.6E1
358 359 -1
358 373 -1
358 374 -1
358 375 -1
358 597 -1
358 598 -1
358 599 -1
358 613 -1
358 614 -1
358 615 -1
358 629 -1
358 630 -1
358 631 -1
359 359 2.6E1
359 360 -1
359 374 -1
359 375 -1
359 376 -1
359 598 -1
359 599 -1
359 600 -1
359 614 -1
359 615 -1
359 616 -1
359 630 -1
359 631 -1
359 632 -1
360 360 2.6E1
360 361 -1
360 375 -1
360 376 -1
360 377 -1
360 599 -1
360 600 -1
360 601 -1
360 615 -1
360 616 -1
360 617 -1
360 631 -1
360 632 -1
360 633 -1
361 361 2.6E1
361 362 -1
361 376 -1
361 377 -1
361 378 -1
361 600 -1
361 601 -1
361 602 -1
361 616 -1
361 617 -1
361 618 -1
361 632 -1
361 633 -1
361 634 -1
362 362 2.6E1
362 363 -1
362 377 -1
362 378 -1
362 379 -1
362 601 -1
362 602 -1
362 603 -1
362 617 -1
362 618 -1
362 619 -1
362 633 -1
362 634 -1
362 635 -1
363 363 2.6E1
363 364 -1
363 378 -1
363 379 -1
363 380 -1
363 602 -1
363 603 -1
363 604 -1
363 618 -1
363 619 -1
363 620 -1
363 634 -1
363 635 -1
363 636 -1
364 364 2.6E1
364 365 -1
364 379 -1
364 380 -1
364 381 -1
364 603 -1
364 604 -1
364 605 -1
364 619 -1
364 620 -1
364 621 -1
364 635 -1
364 636 -1
364 637 -1
365 365 2.6E1
365 366 -1
365 380 -1
365 381 -1
365 382 -1
365 604 -1
365 605 -1
365 606 -1
365 620 -1
365 621 -1
365 622 -1
365 636 -1
365 637 -1
365 638 -1
366 366 2.6E1
366 367 -1
366 381 -1
366 382 -1
366 383 -1
366 605 -1
366 606 -1
366 607 -1
366 621 -1
366 622 -1
366 623 -1
366 637 -1
366 638 -1
366 639 -1
367 367 2.6E1
367 368 -1
367 382 -1
367 383 -1
367 384 -1
367 606 -1
367 607 -1
367 608 -1
367 622 -1
367 623 -1
367 624 -1
367 638 -1
367 639 -1
367 640 -1
368 368 2.6E1
368 383 -1
368 384 -1
368 607 -1
368 608 -1
368 623 -1
368 624 -1
368 639 -1
368 640 -1
369 369 2.6E1
369 370 -1
369 385 -1
369 386 -1
369 609 -1
369 610 -1
369 625 -1
369 626 -1
369 641 -1
369 642 -1
370 370 2.6E1
370 371 -1
370 385 -1
370 386 -1
370 387 -1
370 609 -1
370 610 -1
370 611 -1
370 625 -1
370 626 -1
370 627 -1
370 641 -1
370 642 -1
370 643 -1
371 371 2.6E1
371 372 -1
371 386 -1
371 387 -1
371 388 -1
371 610 -1
371 611 -1
371 612 -1
371 626 -1
371 627 -1
371 628 -1
371 642 -1
371 643 -1
371 644 -1
372 372 2.6E1
372 373 -1
372 387 -1
372 388 -1
372 389 -1
372 611 -1
372 612 -1
372 613 -1
372 627 -1
372 628 -1
372 629 -1
372 643 -1
372 644 -1
372 645 -1
373 373 2.6E1
373 374 -1
373 388 -1
373 389 -1
373 390 -1
373 612 -1
373 613 -1
373 614 -1
373 628 -1
373 629 -1
373 630 -1
373 644 -1
373 645 -1
373 646 -1
374 374 2.6E1
374 375 -1
374 389 -1
374 390 -1
374 391 -1
374 613 -1
374 614 -1
374 615 -1
374 629 -1
374 630 -1
374 631 -1
374 645 -1
374 646 -1
374 647 -1
375 375 2.6E1
375 376 -1
375 390 -1
375 391 -1
375 392 -1
375 614 -1
375 615 -1
375 616 -1
375 630 -1
375 631 -1
375 632 -1
375 646 -1
375 647 -1
375 648 -1
376 376 2.6E1
376 377 -1
376 391 -1
376 392 -1
376 393 -1
376 615 -1
376 616 -1
376 617 -1
376 631 -1
376 632 -1
376 633 -1
376 647 -1
376 648 -1
376 649 -1
377 377 2.6E1
377 378 -1
377 392 -1
377 393 -1
377 394 -1
377 616 -1
377 617 -1
377 618 -1
377 632 -1
377 633 -1
377 634 -1
377 648 -1
377 649 -1
377 650 -1
378 378 2.6E1
378 379 -1
378 393 -1
378 394 -1
378 395 -1
378 617 -1
378 618 -1
378 619 -1
378 633 -1
378 634 -1
378 635 -1
378 649 -1
378 650 -1
378 651 -1
379 379 2.6E1
379 380 -1
379 394 -1
379 395 -1
379 396 -1
379 618 -1
379 619 -1
379 620 -1
379 634 -1
379 635 -1
379 636 -1
379 650 -1
379 651 -1
379 652 -1
380 380 2.6E1
380 381 -1
380 395 -1
380 396 -1
380 397 -1
380 619 -1
380 620 -1
380 621 -1
380 635 -1
380 636 -1
380 637 -1
380 651 -1
380 652 -1
380 653 -1
381 381 2.6E1
381 382 -1
381 396 -1
381 397 -1
381 398 -1
381 620 -1
381 621 -1
381 622 -1
381 636 -1
381 637 -1
381 638 -1
381 652 -1
381 653 -1
381 654 -1
382 382 2.6E1
382 383 -1
382 397 -1
382 398 -1
382 399 -1
382 621 -1
382 622 -1
382 623 -1
382 637 -1
382 638 -1
382 639 -1
382 653 -1
382 654 -1
382 655 -1
383 383 2.6E1
383 384 -1
383 398 -1
383 399 -1
383 400 -1
383 622 -1
383 623 -1
383 624 -1
383 638 -1
383 639 -1
383 640 -1
383 654 -1
383 655 -1
383 656 -1
384 384 2.6E1
384 399 -1
384 400 -1
384 623 -1
384 624 -1
384 639 -1
384 640 -1
384 655 -1
384 656 -1
385 385 2.6E1
385 386 -1
385 401 -1
385 402 -1
385 625 -1
385 626 -1
385 641 -1
385 642 -1
385 657 -1
385 658 -1
386 386 2.6E1
386 387 -1
386 401 -1
386 402 -1
386 403 -1
386 625 -1
386 626 -1
386 627 -1
386 641 -1
386 642 -1
386 643 -1
386 657 -1
386 658 -1
386 659 -1
387 387 2.6E1
387 388 -1
387 402 -1
387 403 -1
387 404 -1
387 626 -1
387 627 -1
387 628 -1
387 642 -1
387 643 -1
387 644 -1
387 658 -1
387 659 -1
387 660 -1
388 388 2.6E1
388 389 -1
388 403 -1
388 404 -1
388 405 -1
388 627 -1
388 628 -1
388 629 -1
388 643 -1
388 644 -1
388 645 -1
388 659 -1
388 660 -1
388 661 -1
389 389 2.6E1
389 390 -1
389 404 -1
389 405 -1
389 406 -1
389 628 -1
389 629 -1
389 630 -1
389 644 -1
389 645 -1
389 646 -1
389 660 -1
389 661 -1
389 662 -1
390 390 2.6E1
390 391 -1
390 405 -1
390 406 -1
390 407 -1
390 629 -1
390 630 -1
390 631 -1
390 645 -1
390 646 -1
390 647 -1
390 661 -1
390 662 -1
390 663 -1
391 391 2.6E1
391 392 -1
391 406 -1
391 407 -1
391 408 -1
391 630 -1
391 631 -1
391 632 -1
391 646 -1
391 647 -1
391 648 -1
391 662 -1
391 663 -1
391 664 -1
392 392 2.6E1
392 393 -1
392 407 -1
392 408 -1
392 409 -1
392 631 -1
392 632 -1
392 633 -1
392 647 -1
392 648 -1
392 649 -1
392 663 -1
392 664 -1
392 665 -1
393 393 2.6E1
393 394 -1
393 408 -1
393 409 -1
393 410 -1
393 632 -1
393 633 -1
393 634 -1
393 648 -1
393 649 -1
393 650 -1
393 664 -1
393 665 -1
393 666 -1
394 394 2.6E1
394 395 -1
394 409 -1
394 410 -1
394 411 -1
394 633 -1
394 634 -1
394 635 -1
394 649 -1
394 650 -1
394 651 -1
394 665 -1
394 666 -1
394 667 -1
395 395 2.6E1
395 396 -1
395 410 -1
395 411 -1
395 412 -1
395 634 -1
395 635 -1
395 636 -1
395 650 -1
395 651 -1
395 652 -1
395 666 -1
395 667 -1
395 668 -1
396 396 2.6E1
396 397 -1
396 411 -1
396 412 -1
396 413 -1
396 635 -1
396 636 -1
396 637 -1
396 651 -1
396 652 -1
396 653 -1
396 667 -1
396 668 -1
396 669 -1
397 397 2.6E1
397 398 -1
397 412 -1
397 413 -1
397 414 -1
397 636 -1
397 637 -1
397 638 -1
397 652 -1
397 653 -1
397 654 -1
397 668 -1
397 669 -1
397 670 -1
398 398 2.6E1
398 399 -1
398 413 -1
398 414 -1
398 415 -1
398 637 -1
398 638 -1
398 639 -1
398 653 -1
398 654 -1
398 655 -1
398 669 -1
398 670 -1
398 671 -1
399 399 2.6E1
399 400 -1
399 414 -1
399 415 -1
399 416 -1
399 638 -1
399 639 -1
399 640 -1
399 654 -1
399 655 -1
399 656 -1
399 670 -1
399 671 -1
399 672 -1
400 400 2.6E1
400 415 -1
400 416 -1
400 639 -1
400 640 -1
400 655 -1
400 656 -1
400 671 -1
400 672 -1
401 401 2.6E1
401 402 -1
401 417 -1
401 418 -1
401 641 -1
401 642 -1
401 657 -1
401 658 -1
401 673 -1
401 674 -1
402 402 2.6E1
402 403 -1
402 417 -1
402 418 -1
402 419 -1
402 641 -1
402 642 -1
402 643 -1
402 657 -1
402 658 -1
402 659 -1
402 673 -1
402 674 -1
402 675 -1
403 403 2.6E1
403 404 -1
403 418 -1
403 419 -1
403 420 -1
403 642 -1
403 643 -1
403 644 -1
403 658 -1
403 659 -1
403 660 -1
403 674 -1
403 675 -1
403 676 -1
404 404 2.6E1
404 405 -1
404 419 -1
404 420 -1
404 421 -1
404 643 -1
404 644 -1
404 645 -1
404 659 -1
404 660 -1
404 661 -1
404 675 -1
404 676 -1
404 677 -1
405 405 2.6E1
405 406 -1
405 420 -1
405 421 -1
405 422 -1
405 644 -1
405 645 -1
405 646 -1
405 660 -1
405 661 -1
405 662 -1
405 676 -1
405 677 -1
405 678 -1
406 406 2.6E1
406 407 -1
406 421 -1
406 422 -1
406 423 -1
406 645 -1
406 646 -1
406 647 -1
406 661 -1
406 662 -1
406 663 -1
406 677 -1
406 678 -1
406 679 -1
407 407 2.6E1
407 408 -1
407 422 -1
407 423 -1
407 424 -1
407 646 -1
407 647 -1
407 648 -1
407 662 -1
407 663 -1
407 664 -1
407 678 -1
407 679 -1
407 680 -1
408 408 2.6E1
408 409 -1
408 423 -1
408 424 -1
408 425 -1
408 647 -1
408 648 -1
408 649 -1
408 663 -1
408 664 -1
408 665 -1
408 679 -1
408 680 -1
408 681 -1
409 409 2.6E1
409 410 -1
409 424 -1
409 425 -1
409 426 -1
409 648 -1
409 649 -1
409 650 -1
409 664 -1
409 665 -1
409 666 -1
409 680 -1
409 681 -1
409 682 -1
410 410 2.6E1
410 411 -1
410 425 -1
410 426 -1
410 427 -1
410 649 -1
410 650 -1
410 651 -1
410 665 -1
410 666 -1
410 667 -1
410 681 -1
410 682 -1
410 683 -1
411 411 2.6E1
411 412 -1
411 426 -1
411 427 -1
411 428 -1
411 650 -1
411 651 -1
411 652 -1
411 666 -1
411 667 -1
411 668 -1
411 682 -1
411 683 -1
411 684 -1
412 412 2.6E1
412 413 -1
412 427 -1
412 428 -1
412 429 -1
412 651 -1
412 652 -1
412 653 -1
412 667 -1
412 668 -1
412 669 -1
412 683 -1
412 684 -1
412 685 -1
413 413 2.6E1
413 414 -1
413 428 -1
413 429 -1
413 430 -1
413 652 -1
413 653 -1
413 654 -1
413 668 -1
413 669 -1
413 670 -1
413 684 -1
413 685 -1
413 686 -1
414 414 2.6E1
414 415 -1
414 429 -1
414 430 -1
414 431 -1
414 653 -1
414 654 -1
414 655 -1
414 669 -1
414 670 -1
414 671 -1
414 685 -1
414 686 -1
414 687 -1
415 415 2.6E1
415 416 -1
415 430 -1
415 431 -1
415 432 -1
415 654 -1
415 655 -1
415 656 -1
415 670 -1
415 671 -1
415 672 -1
415 686 -1
415 687 -1
415 688 -1
416 416 2.6E1
416 431 -1
416 432 -1
416 655 -1
416 656 -1
416 671 -1
416 672 -1
416 687 -1
416 688 -1
417 417 2.6E1
417 418 -1
417 433 -1
417 434 -1
417 657 -1
417 658 -1
417 673 -1
417 674 -1
417 689 -1
417 690 -1
418 418 2.6E1
418 419 -1
418 433 -1
418 434 -1
418 435 -1
418 657 -1
418 658 -1
418 659 -1
418 673 -1
418 674 -1
418 675 -1
418 689 -1
418 690 -1
418 691 -1
419 419 2.6E1
419 420 -1
419 434 -1
419 435 -1
419 436 -1
419 658 -1
419 659 -1
419 660 -1
419 674 -1
419 675 -1
419 676 -1
419 690 -1
419 691 -1
419 692 -1
420 420 2.6E1
420 421 -1
420 435 -1
420 436 -1
420 437 -1
420 659 -1
420 660 -1
420 661 -1
420 675 -1
420 676 -1
420 677 -1
420 691 -1
420 692 -1
420 693 -1
421 421 2.6E1
421 422 -1
421 436 -1
421 437 -1
421 438 -1
421 660 -1
421 661 -1
421 662 -1
421 676 -1
421 677 -1
421 678 -1
421 692 -1
421 693 -1
421 694 -1
422 422 2.6E1
422 423 -1
422 437 -1
422 438 -1
422 439 -1
422 661 -1
422 662 -1
422 663 -1
422 677 -1
422 678 -1
422 679 -1
422 693 -1
422 694 -1
422 695 -1
423 423 2.6E1
423 424 -1
423 438 -1
423 439 -1
423 440 -1
423 662 -1
423 663 -1
423 664 -1
423 678 -1
423 679 -1
423 680 -1
423 694 -1
423 695 -1
423 696 -1
424 424 2.6E1
424 425 -1
424 439 -1
424 440 -1
424 441 -1
424 663 -1
424 664 -1
424 665 -1
424 679 -1
424 680 -1
424 681 -1
424 695 -1
424 696 -1
424 697 -1
425 425 2.6E1
425 426 -1
425 440 -1
425 441 -1
425 442 -1
425 664 -1
425 665 -1
425 666 -1
425 680 -1
425 681 -1
425 682 -1
425 696 -1
425 697 -1
425 698 -1
426 426 2.6E1
426 427 -1
426 441 -1
426 442 -1
426 443 -1
426 665 -1
426 666 -1
426 667 -1
426 681 -1
426 682 -1
426 683 -1
426 697 -1
426 698 -1
426 699 -1
427 427 2.6E1
427 428 -1
427 442 -1
427 443 -1
427 444 -1
427 666 -1
427 667 -1
427 668 -1
427 682 -1
427 683 -1
427 684 -1
427 698 -1
427 699 -1
427 700 -1
428 428 2.6E1
428 429 -1
428 443 -1
428 444 -1
428 445 -1
428 667 -1
428 668 -1
428 669 -1
428 683 -1
428 684 -1
428 685 -1
428 699 -1
428 700 -1
428 701 -1
429 429 2.6E1
429 430 -1
429 444 -1
429 445 -1
429 446 -1
429 668 -1
429 669 -1
429 670 -1
429 684 -1
429 685 -1
429 686 -1
429 700 -1
429 701 -1
429 702 -1
430 430 2.6E1
430 431 -1
430 445 -1
430 446 -1
430 447 -1
430 669 -1
430 670 -1
430 671 -1
430 685 -1
430 686 -1
430 687 -1
430 701 -1
430 702 -1
430 703 -1
431 431 2.6E1
431 432 -1
431 446 -1
431 447 -1
431 448 -1
431 670 -1
431 671 -1
431 672 -1
431 686 -1
431 687 -1
431 688 -1
431 702 -1
431 703 -1
431 704 -1
432 432 2.6E1
432 447 -1
432 448 -1
432 671 -1
432 672 -1
432 687 -1
432 688 -1
432 703 -1
432 704 -1
433 433 2.6E1
433 434 -1
433 449 -1
433 450 -1
433 673 -1
433 674 -1
433 689 -1
433 690 -1
433 705 -1
433 706 -1
434 434 2.6E1
434 435 -1
434 449 -1
434 450 -1
434 451 -1
434 673 -1
434 674 -1
434 675 -1
434 689 -1
434 690 -1
434 691 -1
434 705 -1
434 706 -1
434 707 -1
435 435 2.6E1
435 436 -1
435 450 -1
435 451 -1
435 452 -1
435 674 -1
435 675 -1
435 676 -1
435 690 -1
435 691 -1
435 692 -1
435 706 -1
435 707 -1
435 708 -1
436 436 2.6E1
436 437 -1
436 451 -1
436 452 -1
436 453 -1
436 675 -1
436 676 -1
436 677 -1
436 691 -1
436 692 -1
436 693 -1
436 707 -1
436 708 -1
436 709 -1
437 437 2.6E1
437 438 -1
437 452 -1
437 453 -1
437 454 -1
437 676 -1
437 677 -1
437 678 -1
437 692 -1
437 693 -1
437 694 -1
437 708 -1
437 709 -1
437 710 -1
438 438 2.6E1
438 439 -1
438 453 -1
438 454 -1
438 455 -1
438 677 -1
438 678 -1
438 679 -1
438 693 -1
438 694 -1
438 695 -1
438 709 -1
438 710 -1
438 711 -1
439 439 2.6E1
439 440 -1
439 454 -1
439 455 -1
439 456 -1
439 678 -1
439 679 -1
439 680 -1
439 694 -1
439 695 -1
439 696 -1
439 710 -1
439 711 -1
439 712 -1
440 440 2.6E1
440 441 -1
440 455 -1
440 456 -1
440 457 -1
440 679 -1
440 680 -1
440 681 -1
440 695 -1
440 696 -1
440 697 -1
440 711 -1
440 712 -1
440 713 -1
441 441 2.6E1
441 442 -1
441 456 -1
441 457 -1
441 458 -1
441 680 -1
441 681 -1
441 682 -1
441 696 -1
441 697 -1
441 698 -1
441 712 -1
441 713 -1
441 714 -1
442 442 2.6E1
442 443 -1
442 457 -1
442 458 -1
442 459 -1
442 681 -1
442 682 -1
442 683 -1
442 697 -1
442 698 -1
442 699 -1
442 713 -1
442 714 -1
442 715 -1
443 443 2.6E1
443 444 -1
443 458 -1
443 459 -1
443 460 -1
443 682 -1
443 683 -1
443 684 -1
443 698 -1
443 699 -1
443 700 -1
443 714 -1
443 715 -1
443 716 -1
444 444 2.6E1
444 445 -1
444 459 -1
444 460 -1
444 461 -1
444 683 -1
444 684 -1
444 685 -1
444 699 -1
444 700 -1
444 701 -1
444 715 -1
444 716 -1
444 717 -1
445 445 2.6E1
445 446 -1
445 460 -1
445 461 -1
445 462 -1
445 684 -1
445 685 -1
445 686 -1
445 700 -1
445 701 -1
445 702 -1
445 716 -1
445 717 -1
445 718 -1
446 446 2.6E1
446 447 -1
446 461 -1
446 462 -1
446 463 -1
446 685 -1
446 686 -1
446 687 -1
446 701 -1
446 702 -1
446 703 -1
446 717 -1
446 718 -1
446 719 -1
447 447 2.6E1
447 448 -1
447 462 -1
447 463 -1
447 464 -1
447 686 -1
447 687 -1
447 688 -1
447 702 -1
447 703 -1
447 704 -1
447 718 -1
447 719 -1
447 720 -1
448 448 2.6E1
448 463 -1
448 464 -1
448 687 -1
448 688 -1
448 703 -1
448 704 -1
448 719 -1
448 720 -1
449 449 2.6E1
449 450 -1
449 465 -1
449 466 -1
449 689 -1
449 690 -1
449 705 -1
449 706 -1
449 721 -1
449 722 -1
450 450 2.6E1
450 451 -1
450 465 -1
450 466 -1
450 467 -1
450 689 -1
450 690 -1
450 691 -1
450 705 -1
450 706 -1
450 707 -1
450 721 -1
450 722 -1
450 723 -1
451 451 2.6E1
451 452 -1
451 466 -1
451 467 -1
451 468 -1
451 690 -1
451 691 -1
451 692 -1
451 706 -1
451 707 -1
451 708 -1
451 722 -1
451 723 -1
451 724 -1
452 452 2.6E1
452 453 -1
452 467 -1
452 468 -1
452 469 -1
452 691 -1
452 692 -1
452 693 -1
452 707 -1
452 708 -1
452 709 -1
452 723 -1
452 724 -1
452 725 -1
453 453 2.6E1
453 454 -1
453 468 -1
453 469 -1
453 470 -1
453 692 -1
453 693 -1
453 694 -1
453 708 -1
453 709 -1
453 710 -1
453 724 -1
453 725 -1
453 726 -1
454 454 2.6E1
454 455 -1
454 469 -1
454 470 -1
454 471 -1
454 693 -1
454 694 -1
454 695 -1
454 709 -1
454 710 -1
454 711 -1
454 725 -1
454 726 -1
454 727 -1
455 455 2.6E1
455 456 -1
455 470 -1
455 471 -1
455 472 -1
455 694 -1
455 695 -1
455 696 -1
455 710 -1
455 711 -1
455 712 -1
455 726 -1
455 727 -1
455 728 -1
456 456 2.6E1
456 457 -1
456 471 -1
456 472 -1
456 473 -1
456 695 -1
456 696 -1
456 697 -1
456 711 -1
456 712 -1
456 713 -1
456 727 -1
456 728 -1
456 729 -1
457 457 2.6E1
457 458 -1
457 472 -1
457 473 -1
457 474 -1
457 696 -1
457 697 -1
457 698 -1
457 712 -1
457 713 -1
457 714 -1
457 728 -1
457 729 -1
457 730 -1
458 458 2.6E1
458 459 -1
458 473 -1
458 474 -1
458 475 -1
458 697 -1
458 698 -1
458 699 -1
458 713 -1
458 714 -1
458 715 -1
458 729 -1
458 730 -1
458 731 -1
459 459 2.6E1
459 460 -1
459 474 -1
459 475 -1
459 476 -1
459 698 -1
459 699 -1
459 700 -1
459 714 -1
459 715 -1
459 716 -1
459 730 -1
459 731 -1
459 732 -1
460 460 2.6E1
460 461 -1
460 475 -1
460 476 -1
460 477 -1
460 699 -1
460 700 -1
460 701 -1
460 715 -1
460 716 -1
460 717 -1
460 731 -1
460 732 -1
460 733 -1
461 461 2.6E1
461 462 -1
461 476 -1
461 477 -1
461 478 -1
461 700 -1
461 701 -1
461 702 -1
461 716 -1
461 717 -1
461 718 -1
461 732 -1
461 733 -1
461 734 -1
462 462 2.6E1
462 463 -1
462 477 -1
462 478 -1
462 479 -1
462 701 -1
462 702 -1
462 703 -1
462 717 -1
462 718 -1
462 719 -1
462 733 -1
462 734 -1
462 735 -1
463 463 2.6E1
463 464 -1
463 478 -1
463 479 -1
463 480 -1
463 702 -1
463 703 -1
463 704 -1
463 718 -1
463 719 -1
463 720 -1
463 734 -1
463 735 -1
463 736 -1
464 464 2.6E1
464 479 -1
464 480 -1
464 703 -1
464 704 -1
464 719 -1
464 720 -1
464 735 -1
464 736 -1
465 465 2.6E1
465 466 -1
465 481 -1
465 482 -1
465 705 -1
465 706 -1
465 721 -1
465 722 -1
465 737 -1
465 738 -1
466 466 2.6E1
466 467 -1
466 481 -1
466 482 -1
466 483 -1
466 705 -1
466 706 -1
466 707 -1
466 721 -1
466 722 -1
466 723 -1
466 737 -1
466 738 -1
466 739 -1
467 467 2.6E1
467 468 -1
467 482 -1
467 483 -1
467 484 -1
467 706 -1
467 707 -1
467 708 -1
467 722 -1
467 723 -1
467 724 -1
467 738 -1
467 739 -1
467 740 -1
468 468 2.6E1
468 469 -1
468 483 -1
468 484 -1
468 485 -1
468 707 -1
468 708 -1
468 709 -1
468 723 -1
468 724 -1
468 725 -1
468 739 -1
468 740 -1
468 741 -1
469 469 2.6E1
469 470 -1
469 484 -1
469 485 -1
469 486 -1
469 708 -1
469 709 -1
469 710 -1
469 724 -1
469 725 -1
469 726 -1
469 740 -1
469 741 -1
469 742 -1
470 470 2.6E1
470 471 -1
470 485 -1
470 486 -1
470 487 -1
470 709 -1
470 710 -1
470 711 -1
470 725 -1
470 726 -1
470 727 -1
470 741 -1
470 742 -1
470 743 -1
471 471 2.6E1
471 472 -1
471 486 -1
471 487 -1
471 488 -1
471 710 -1
471 711 -1
471 712 -1
471 726 -1
471 727 -1
471 728 -1
471 742 -1
471 743 -1
471 744 -1
472 472 2.6E1
472 473 -1
472 487 -1
472 488 -1
472 489 -1
472 711 -1
472 712 -1
472 713 -1
472 727 -1
472 728 -1
472 729 -1
472 743 -1
472 744 -1
472 745 -1
473 473 2.6E1
473 474 -1
473 488 -1
473 489 -1
473 490 -1
473 712 -1
473 713 -1
473 714 -1
473 728 -1
473 729 -1
473 730 -1
473 744 -1
473 745 -1
473 746 -1
474 474 2.6E1
474 475 -1
474 489 -1
474 490 -1
474 491 -1
474 713 -1
474 714 -1
474 715 -1
474 729 -1
474 730 -1
474 731 -1
474 745 -1
474 746 -1
474 747 -1
475 475 2.6E1
475 476 -1
475 490 -1
475 491 -1
475 492 -1
475 714 -1
475 715 -1
475 716 -1
475 730 -1
475 731 -1
475 732 -1
475 746 -1
475 747 -1
475 748 -1
476 476 2.6E1
476 477 -1
476 491 -1
476 492 -1
476 493 -1
476 715 -1
476 716 -1
476 717 -1
476 731 -1
476 732 -1
476 733 -1
476 747 -1
476 748 -1
476 749 -1
477 477 2.6E1
477 478 -1
477 492 -1
477 493 -1
477 494 -1
477 716 -1
477 717 -1
477 718 -1
477 732 -1
477 733 -1
477 734 -1
477 748 -1
477 749 -1
477 750 -1
478 478 2.6E1
478 479 -1
478 493 -1
478 494 -1
478 495 -1
478 717 -1
478 718 -1
478 719 -1
478 733 -1
478 734 -1
478 735 -1
478 749 -1
478 750 -1
478 751 -1
479 479 2.6E1
479 480 -1
479 494 -1
479 495 -1
479 496 -1
479 718 -1
479 719 -1
479 720 -1
479 734 -1
479 735 -1
479 736 -1
479 750 -1
479 751 -1
479 752 -1
480 480 2.6E1
480 495 -1
480 496 -1
480 719 -1
480 720 -1
480 735 -1
480 736 -1
480 751 -1
480 752 -1
481 481 2.6E1
481 482 -1
481 497 -1
481 498 -1
481 721 -1
481 722 -1
481 737 -1
481 738 -1
481 753 -1
481 754 -1
482 482 2.6E1
482 483 -1
482 497 -1
482 498 -1
482 499 -1
482 721 -1
482 722 -1
482 723 -1
482 737 -1
482 738 -1
482 739 -1
482 753 -1
482 754 -1
482 755 -1
483 483 2.6E1
483 484 -1
483 498 -1
483 499 -1
483 500 -1
483 722 -1
483 723 -1
483 724 -1
483 738 -1
483 739 -1
483 740 -1
483 754 -1
483 755 -1
483 756 -1
484 484 2.6E1
484 485 -1
484 499 -1
484 500 -1
484 501 -1
484 723 -1
484 724 -1
484 725 -1
484 739 -1
484 740 -1
484 741 -1
484 755 -1
484 756 -1
484 757 -1
485 485 2.6E1
485 486 -1
485 500 -1
485 501 -1
485 502 -1
485 724 -1
485 725 -1
485 726 -1
485 740 -1
485 741 -1
485 742 -1
485 756 -1
485 757 -1
485 758 -1
486 486 2.6E1
486 487 -1
486 501 -1
486 502 -1
486 503 -1
486 725 -1
486 726 -1
486 727 -1
486 741 -1
486 742 -1
486 743 -1
486 757 -1
486 758 -1
486 759 -1
487 487 2.6E1
487 488 -1
487 502 -1
487 503 -1
487 504 -1
487 726 -1
487 727 -1
487 728 -1
487 742 -1
487 743 -1
487 744 -1
487 758 -1
487 759 -1
487 760 -1
488 488 2.6E1
488 489 -1
488 503 -1
488 504 -1
488 505 -1
488 727 -1
488 728 -1
488 729 -1
488 743 -1
488 744 -1
488 745 -1
488 759 -1
488 760 -1
488 761 -1
489 489 2.6E1
489 490 -1
489 504 -1
489 505 -1
489 506 -1
489 728 -1
489 729 -1
489 730 -1
489 744 -1
489 745 -1
489 746 -1
489 760 -1
489 761 -1
489 762 -1
490 490 2.6E1
490 491 -1
490 505 -1
490 506 -1
490 507 -1
490 729 -1
490 730 -1
490 731 -1
490 745 -1
490 746 -1
490 747 -1
490 761 -1
490 762 -1
490 763 -1
491 491 2.6E1
491 492 -1
491 506 -1
491 507 -1
491 508 -1
491 730 -1
491 731 -1
491 732 -1
491 746 -1
491 747 -1
491 748 -1
491 762 -1
491 763 -1
491 764 -1
492 492 2.6E1
492 493 -1
492 507 -1
492 508 -1
492 509 -1
492 731 -1
492 732 -1
492 733 -1
492 747 -1
492 748 -1
492 749 -1
492 763 -1
492 764 -1
492 765 -1
493 493 2.6E1
493 494 -1
493 508 -1
493 509 -1
493 510 -1
493 732 -1
493 733 -1
493 734 -1
493 748 -1
493 749 -1
493 750 -1
493 764 -1
493 765 -1
493 766 -1
494 494 2.6E1
494 495 -1
494 509 -1
494 510 -1
494 511 -1
494 733 -1
494 734 -1
494 735 -1
494 749 -1
494 750 -1
494 751 -1
494 765 -1
494 766 -1
494 767 -1
495 495 2.6E1
495 496 -1
495 510 -1
495 511 -1
495 512 -1
495 734 -1
495 735 -1
495 736 -1
495 750 -1
495 751 -1
495 752 -1
495 766 -1
495 767 -1
495 768 -1
496 496 2.6E1
496 511 -1
496 512 -1
496 735 -1
496 736 -1
496 751 -1
496 752 -1
496 767 -1
496 768 -1
497 497 2.6E1
497 498 -1
497 737 -1
497 738 -1
497 753 -1
497 754 -1
498 498 2.6E1
498 499 -1
498 737 -1
498 738 -1
498 739 -1
498 753 -1
498 754 -1
498 755 -1
499 499 2.6E1
499 500 -1
499 738 -1
499 739 -1
499 740 -1
499 754 -1
499 755 -1
499 756 -1
500 500 2.6E1
500 501 -1
500 739 -1
500 740 -1
500 741 -1
500 755 -1
500 756 -1
500 757 -1
501 501 2.6E1
501 502 -1
501 740 -1
501 741 -1
501 742 -1
501 756 -1
501 757 -1
501 758 -1
502 502 2.6E1
502 503 -1
502 741 -1
502 742 -1
502 743 -1
502 757 -1
502 758 -1
502 759 -1
503 503 2.6E1
503 504 -1
503 742 -1
503 743 -1
503 744 -1
503 758 -1
503 759 -1
503 760 -1
504 504 2.6E1
504 505 -1
504 743 -1
504 744 -1
504 745 -1
504 759 -1
504 760 -1
504 761 -1
505 505 2.6E1
505 506 -1
505 744 -1
505 745 -1
505 746 -1
505 760 -1
505 761 -1
505 762 -1
506 506 2.6E1
506 507 -1
506 745 -1
506 746 -1
506 747 -1
506 761 -1
506 762 -1
506 763 -1
507 507 2.6E1
507 508 -1
507 746 -1
507 747 -1
507 748 -1
507 762 -1
507 763 -1
507 764 -1
508 508 2.6E1
508 509 -1
508 747 -1
508 748 -1
508 749 -1
508 763 -1
508 764 -1
508 765 -1
509 509 2.6E1
509 510 -1
509 748 -1
509 749 -1
509 750 -1
509 764 -1
509 765 -1
509 766 -1
510 510 2.6E1
510 511 -1
510 749 -1
510 750 -1
510 751 -1
510 765 -1
510 766 -1
510 767 -1
511 511 2.6E1
511 512 -1
511 750 -1
511 751 -1
511 752 -1
511 766 -1
511 767 -1
511 768 -1
512 512 2.6E1
512 751 -1
512 752 -1
512 767 -1
512 768 -1
513 513 2.6E1
513 514 -1
513 529 -1
513 530 -1
513 769 -1
513 770 -1
513 785 -1
513 786 -1
514 514 2.6E1
514 515 -1
514 529 -1
514 530 -1
514 531 -1
514 769 -1
514 770 -1
514 771 -1
514 785 -1
514 786 -1
514 787 -1
515 515 2.6E1
515 516 -1
515 530 -1
515 531 -1
515 532 -1
515 770 -1
515 771 -1
515 772 -1
515 786 -1
515 787 -1
515 788 -1
516 516 2.6E1
516 517 -1
516 531 -1
516 532 -1
516 533 -1
516 771 -1
516 772 -1
516 773 -1
516 787 -1
516 788 -1
516 789 -1
517 517 2.6E1
517 518 -1
517 532 -1
517 533 -1
517 534 -1
517 772 -1
517 773 -1
517 774 -1
517 788 -1
517 789 -1
517 790 -1
518 518 2.6E1
518 519 -1
518 533 -1
518 534 -1
518 535 -1
518 773 -1
518 774 -1
518 775 -1
518 789 -1
518 790 -1
518 791 -1
519 519 2.6E1
519 520 -1
519 534 -1
519 535 -1
519 536 -1
519 774 -1
519 775 -1
519 776 -1
519 790 -1
519 791 -1
519 792 -1
520 520 2.6E1
520 521 -1
520 535 -1
520 536 -1
520 537 -1
520 775 -1
520 776 -1
520 777 -1
520 791 -1
520 792 -1
520 793 -1
521 521 2.6E1
521 522 -1
521 536 -1
521 537 -1
521 538 -1
521 776 -1
521 777 -1
521 778 -1
521 792 -1
521 793 -1
521 794 -1
522 522 2.6E1
522 523 -1
522 537 -1
522 538 -1
522 539 -1
522 777 -1
522 778 -1
522 779 -1
522 793 -1
522 794 -1
522 795 -1
523 523 2.6E1
523 524 -1
523 538 -1
523 539 -1
523 540 -1
523 778 -1
523 779 -1
523 780 -1
523 794 -1
523 795 -1
523 796 -1
524 524 2.6E1
524 525 -1
524 539 -1
524 540 -1
524 541 -1
524 779 -1
524 780 -1
524 781 -1
524 795 -1
524 796 -1
524 797 -1
525 525 2.6E1
525 526 -1
525 540 -1
525 541 -1
525 542 -1
525 780 -1
525 781 -1
525 782 -1
525 796 -1
525 797 -1
525 798 -1
526 526 2.6E1
526 527 -1
526 541 -1
526 542 -1
526 543 -1
526 781 -1
526 782 -1
526 783 -1
526 797 -1
526 798 -1
526 799 -1
527 527 2.6E1
527 528 -1
527 542 -1
527 543 -1
527 544 -1
527 782 -1
527 783 -1
527 784 -1
527 798 -1
527 799 -1
527 800 -1
528 528 2.6E1
528 543 -1
528 544 -1
528 783 -1
528 784 -1
528 799 -1
528 800 -1
529 529 2.6E1
529 530 -1
529 545 -1
529 546 -1
529 769 -1
529 770 -1
529 785 -1
529 786 -1
529 801 -1
529 802 -1
530 530 2.6E1
530 531 -1
530 545 -1
530 546 -1
530 547 -1
530 769 -1
530 770 -1
530 771 -1
530 785 -1
530 786 -1
530 787 -1
530 801 -1
530 802 -1
530 803 -1
531 531 2.6E1
531 532 -1
531 546 -1
531 547 -1
531 548 -1
531 770 -1
531 771 -1
531 772 -1
531 786 -1
531 787 -1
531 788 -1
531 802 -1
531 803 -1
531 804 -1
532 532 2.6E1
532 533 -1
532 547 -1
532 548 -1
532 549 -1
532 771 -1
532 772 -1
532 773 -1
532 787 -1
532 788 -1
532 789 -1
532 803 -1
532 804 -1
532 805 -1
533 533 2.6E1
533 534 -1
533 548 -1
533 549 -1
533 550 -1
533 772 -1
533 773 -1
533 774 -1
533 788 -1
533 789 -1
533 790 -1
533 804 -1
533 805 -1
533 806 -1
534 534 2.6E1
534 535 -1
534 549 -1
534 550 -1
534 551 -1
534 773 -1
534 774 -1
534 775 -1
534 789 -1
534 790 -1
534 791 -1
534 805 -1
534 806 -1
534 807 -1
535 535 2.6E1
535 536 -1
535 550 -1
535 551 -1
535 552 -1
535 774 -1
535 775 -1
535 776 -1
535 790 -1
535 791 -1
535 792 -1
535 806 -1
535 807 -1
535 808 -1
536 536 2.6E1
536 537 -1
536 551 -1
536 552 -1
536 553 -1
536 775 -1
536 776 -1
536 777 -1
536 791 -1
536 792 -1
536 793 -1
536 807 -1
536 808 -1
536 809 -1
537 537 2.6E1
537 538 -1
537 552 -1
537 553 -1
537 554 -1
537 776 -1
537 777 -1
537 778 -1
537 792 -1
537 793 -1
537 794 -1
537 808 -1
537 809 -1
537 810 -1
538 538 2.6E1
538 539 -1
538 553 -1
538 554 -1
538 555 -1
538 777 -1
538 778 -1
538 779 -1
538 793 -1
538 794 -1
538 795 -1
538 809 -1
538 810 -1
538 811 -1
539 539 2.6E1
539 540 -1
539 554 -1
539 555 -1
539 556 -1
539 778 -1
539 779 -1
539 780 -1
539 794 -1
539 795 -1
539 796 -1
539 810 -1
539 811 -1
539 812 -1
540 540 2.6E1
540 541 -1
540 555 -1
540 556 -1
540 557 -1
540 779 -1
540 780 -1
540 781 -1
540 795 -1
540 796 -1
540 797 -1
540 811 -1
540 812 -1
540 813 -1
541 541 2.6E1
541 542 -1
541 556 -1
541 557 -1
541 558 -1
541 780 -1
541 781 -1
541 782 -1
541 796 -1
541 797 -1
541 798 -1
541 812 -1
541 813 -1
541 814 -1
542 542 2.6E1
542 543 -1
542 557 -1
542 558 -1
542 559 -1
542 781 -1
542 782 -1
542 783 -1
542 797 -1
542 798 -1
542 799 -1
542 813 -1
542 814 -1
542 815 -1
543 543 2.6E1
543 544 -1
543 558 -1
543 559 -1
543 560 -1
543 782 -1
543 783 -1
543 784 -1
543 798 -1
543 799 -1
543 800 -1
543 814 -1
543 815 -1
543 816 -1
544 544 2.6E1
544 559 -1
544 560 -1
544 783 -1
544 784 -1
544 799 -1
544 800 -1
544 815 -1
544 816 -1
545 545 2.6E1
545 546 -1
545 561 -1
545 562 -1
545 785 -1
545 786 -1
545 801 -1
545 802 -1
545 817 -1
545 818 -1
546 546 2.6E1
546 547 -1
546 561 -1
546 562 -1
546 563 -1
546 785 -1
546 786 -1
546 787 -1
546 801 -1
546 802 -1
546 803 -1
546 817 -1
546 818 -1
546 819 -1
547 547 2.6E1
547 548 -1
547 562 -1
547 563 -1
547 564 -1
547 786 -1
547 787 -1
547 788 -1
547 802 -1
547 803 -1
547 804 -1
547 818 -1
547 819 -1
547 820 -1
548 548 2.6E1
548 549 -1
548 563 -1
548 564 -1
548 565 -1
548 787 -1
548 788 -1
548 789 -1
548 803 -1
548 804 -1
548 805 -1
548 819 -1
548 820 -1
548 821 -1
549 549 2.6E1
549 550 -1
549 564 -1
549 565 -1
549 566 -1
549 788 -1
549 789 -1
549 790 -1
549 804 -1
549 805 -1
549 806 -1
549 820 -1
549 821 -1
549 822 -1
550 550 2.6E1
550 551 -1
550 565 -1
550 566 -1
550 567 -1
550 789 -1
550 790 -1
550 791 -1
550 805 -1
550 806 -1
550 807 -1
550 821 -1
550 822 -1
550 823 -1
551 551 2.6E1
551 552 -1
551 566 -1
551 567 -1
551 568 -1
551 790 -1
551 791 -1
551 792 -1
551 806 -1
551 807 -1
551 808 -1
551 822 -1
551 823 -1
551 824 -1
552 552 2.6E1
552 553 -1
552 567 -1
552 568 -1
552 569 -1
552 791 -1
552 792 -1
552 793 -1
552 807 -1
552 808 -1
552 809 -1
552 823 -1
552 824 -1
552 825 -1
553 553 2.6E1
553 554 -1
553 568 -1
553 569 -1
553 570 -1
553 792 -1
553 793 -1
553 794 -1
553 808 -1
553 809 -1
553 810 -1
553 824 -1
553 825 -1
553 826 -1
554 554 2.6E1
554 555 -1
554 569 -1
554 570 -1
554 571 -1
554 793 -1
554 794 -1
554 795 -1
554 809 -1
554 810 -1
554 811 -1
554 825 -1
554 826 -1
554 827 -1
555 555 2.6E1
555 556 -1
555 570 -1
555 571 -1
555 572 -1
555 794 -1
555 795 -1
555 796 -1
555 810 -1
555 811 -1
555 812 -1
555 826 -1
555 827 -1
555 828 -1
556 556 2.6E1
556 557 -1
556 571 -1
556 572 -1
556 573 -1
556 795 -1
556 796 -1
556 797 -1
556 811 -1
556 812 -1
556 813 -1
556 827 -1
556 828 -1
556 829 -1
557 557 2.6E1
557 558 -1
557 572 -1
557 573 -1
557 574 -1
557 796 -1
557 797 -1
557 798 -1
557 812 -1
557 813 -1
557 814 -1
557 828 -1
557 829 -1
557 830 -1
558 558 2.6E1
558 559 -1
558 573 -1
558 574 -1
558 575 -1
558 797 -1
558 798 -1
558 799 -1
558 813 -1
558 814 -1
558 815 -1
558 829 -1
558 830 -1
558 831 -1
559 559 2.6E1
559 560 -1
559 574 -1
559 575 -1
559 576 -1
559 798 -1
559 799 -1
559 800 -1
559 814 -1
559 815 -1
559 816 -1
559 830 -1
559 831 -1
559 832 -1
560 560 2.6E1
560 575 -1
560 576 -1
560 799 -1
560 800 -1
560 815 -1
560 816 -1
560 831 -1
560 832 -1
561 561 2.6E1
561 562 -1
561 577 -1
561 578 -1
561 801 -1
561 802 -1
561 817 -1
561 818 -1
561 833 -1
561 834 -1
562 562 2.6E1
562 563 -1
562 577 -1
562 578 -1
562 579 -1
562 801 -1
562 802 -1
562 803 -1
562 817 -1
562 818 -1
562 819 -1
562 833 -1
562 834 -1
562 835 -1
563 563 2.6E1
563 564 -1
563 578 -1
563 579 -1
563 580 -1
563 802 -1
563 803 -1
563 804 -1
563 818 -1
563 819 -1
563 820 -1
563 834 -1
563 835 -1
563 836 -1
564 564 2.6E1
564 565 -1
564 579 -1
564 580 -1
564 581 -1
564 803 -1
564 804 -1
564 805 -1
564 819 -1
564 820 -1
564 821 -1
564 835 -1
564 836 -1
564 837 -1
565 565 2.6E1
565 566 -1
565 580 -1
565 581 -1
565 582 -1
565 804 -1
565 805 -1
565 806 -1
565 820 -1
565 821 -1
565 822 -1
565 836 -1
565 837 -1
565 838 -1
566 566 2.6E1
566 567 -1
566 581 -1
566 582 -1
566 583 -1
566 805 -1
566 806 -1
566 807 -1
566 821 -1
566 822 -1
566 823 -1
566 837 -1
566 838 -1
566 839 -1
567 567 2.6E1
567 568 -1
567 582 -1
567 583 -1
567 584 -1
567 806 -1
567 807 -1
567 808 -1
567 822 -1
567 823 -1
567 824 -1
567 838 -1
567 839 -1
567 840 -1
568 568 2.6E1
568 569 -1
568 583 -1
568 584 -1
568 585 -1
568 807 -1
568 808 -1
568 809 -1
568 823 -1
568 824 -1
568 825 -1
568 839 -1
568 840 -1
568 841 -1
569 569 2.6E1
569 570 -1
569 584 -1
569 585 -1
569 586 -1
569 808 -1
569 809 -1
569 810 -1
569 824 -1
569 825 -1
569 826 -1
569 840 -1
569 841 -1
569 842 -1
570 570 2.6E1
570 571 -1
570 585 -1
570 586 -1
570 587 -1
570 809 -1
570 810 -1
570 811 -1
570 825 -1
570 826 -1
570 827 -1
570 841 -1
570 842 -1
570 843 -1
571 571 2.6E1
571 572 -1
571 586 -1
571 587 -1
571 588 -1
571 810 -1
571 811 -1
571 812 -1
571 826 -1
571 827 -1
571 828 -1
571 842 -1
571 843 -1
571 844 -1
572 572 2.6E1
572 573 -1
572 587 -1
572 588 -1
572 589 -1
572 811 -1
572 812 -1
572 813 -1
572 827 -1
572 828 -1
572 829 -1
572 843 -1
572 844 -1
572 845 -1
573 573 2.6E1
573 574 -1
573 588 -1
573 589 -1
573 590 -1
573 812 -1
573 813 -1
573 814 -1
573 828 -1
573 829 -1
573 830 -1
573 844 -1
573 845 -1
573 846 -1
574 574 2.6E1
574 575 -1
574 589 -1
574 590 -1
574 591 -1
574 813 -1
574 814 -1
574 815 -1
574 829 -1
574 830 -1
574 831 -1
574 845 -1
574 846 -1
574 847 -1
575 575 2.6E1
575 576 -1
575 590 -1
575 591 -1
575 592 -1
575 814 -1
575 815 -1
575 816 -1
575 830 -1
575 831 -1
575 832 -1
575 846 -1
575 847 -1
575 848 -1
576 576 2.6E1
576 591 -1
576 592 -1
576 815 -1
576 816 -1
576 831 -1
576 832 -1
576 847 -1
576 848 -1
577 577 2.6E1
577 578 -1
577 593 -1
577 594 -1
577 817 -1
577 818 -1
577 833 -1
577 834 -1
577 849 -1
577 850 -1
578 578 2.6E1
578 579 -1
578 593 -1
578 594 -1
578 595 -1
578 817 -1
578 818 -1
578 819 -1
578 833 -1
578 834 -1
578 835 -1
578 849 -1
578 850 -1
578 851 -1
579 579 2.6E1
579 580 -1
579 594 -1
579 595 -1
579 596 -1
579 818 -1
579 819 -1
579 820 -1
579 834 -1
579 835 -1
579 836 -1
579 850 -1
579 851 -1
579 852 -1
580 580 2.6E1
580 581 -1
580 595 -1
580 596 -1
580 597 -1
580 819 -1
580 820 -1
580 821 -1
580 835 -1
580 836 -1
580 837 -1
580 851 -1
580 852 -1
580 853 -1
581 581 2.6E1
581 582 -1
581 596 -1
581 597 -1
581 598 -1
581 820 -1
581 821 -1
581 822 -1
581 836 -1
581 837 -1
581 838 -1
581 852 -1
581 853 -1
581 854 -1
582 582 2.6E1
582 583 -1
582 597 -1
582 598 -1
582 599 -1
582 821 -1
582 822 -1
582 823 -1
582 837 -1
582 838 -1
582 839 -1
582 853 -1
582 854 -1
582 855 -1
583 583 2.6E1
583 584 -1
583 598 -1
583 599 -1
583 600 -1
583 822 -1
583 823 -1
583 824 -1
583 838 -1
583 839 -1
583 840 -1
583 854 -1
583 855 -1
583 856 -1
584 584 2.6E1
584 585 -1
584 599 -1
584 600 -1
584 601 -1
584 823 -1
584 824 -1
584 825 -1
584 839 -1
584 840 -1
584 841 -1
584 855 -1
584 856 -1
584 857 -1
585 585 2.6E1
585 586 -1
585 600 -1
585 601 -1
585 602 -1
585 824 -1
585 825 -1
585 826 -1
585 840 -1
585 841 -1
585 842 -1
585 856 -1
585 857 -1
585 858 -1
586 586 2.6E1
586 587 -1
586 601 -1
586 602 -1
586 603 -1
586 825 -1
586 826 -1
586 827 -1
586 841 -1
586 842 -1
586 843 -1
586 857 -1
586 858 -1
586 859 -1
587 587 2.6E1
587 588 -1
587 602 -1
587 603 -1
587 604 -1
587 826 -1
587 827 -1
587 828 -1
587 842 -1
587 843 -1
587 844 -1
587 858 -1
587 859 -1
587 860 -1
588 588 2.6E1
588 589 -1
588 603 -1
588 604 -1
588 605 -1
588 827 -1
588 828 -1
588 829 -1
588 843 -1
588 844 -1
588 845 -1
588 859 -1
588 860 -1
588 861 -1
589 589 2.6E1
589 590 -1
589 604 -1
589 605 -1
589 606 -1
589 828 -1
589 829 -1
589 830 -1
589 844 -1
589 845 -1
589 846 -1
589 860 -1
589 861 -1
589 862 -1
590 590 2.6E1
590 591 -1
590 605 -1
590 606 -1
590 607 -1
590 829 -1
590 830 -1
590 831 -1
590 845 -1
590 846 -1
590 847 -1
590 861 -1
590 862 -1
590 863 -1
591 591 2.6E1
591 592 -1
591 606 -1
591 607 -1
591 608 -1
591 830 -1
591 831 -1
591 832 -1
591 846 -1
591 847 -1
591 848 -1
591 862 -1
591 863 -1
591 864 -1
592 592 2.6E1
592 607 -1
592 608 -1
592 831 -1
592 832 -1
592 847 -1
592 848 -1
592 863 -1
592 864 -1
593 593 2.6E1
593 594 -1
593 609 -1
593 610 -1
593 833 -1
593 834 -1
593 849 -1
593 850 -1
593 865 -1
593 866 -1
594 594 2.6E1
594 595 -1
594 609 -1
594 610 -1
594 611 -1
594 833 -1
594 834 -1
594 835 -1
594 849 -1
594 850 -1
594 851 -1
594 865 -1
594 866 -1
594 867 -1
595 595 2.6E1
595 596 -1
595 610 -1
595 611 -1
595 612 -1
595 834 -1
595 835 -1
595 836 -1
595 850 -1
595 851 -1
595 852 -1
595 866 -1
595 867 -1
595 868 -1
596 596 2.6E1
596 597 -1
596 611 -1
596 612 -1
596 613 -1
596 835 -1
596 836 -1
596 837 -1
596 851 -1
596 852 -1
596 853 -1
596 867 -1
596 868 -1
596 869 -1
597 597 2.6E1
597 598 -1
597 612 -1
597 613 -1
597 614 -1
597 836 -1
597 837 -1
597 838 -1
597 852 -1
597 853 -1
597 854 -1
597 868 -1
597 869 -1
597 870 -1
598 598 2.6E1
598 599 -1
598 613 -1
598 614 -1
598 615 -1
598 837 -1
598 838 -1
598 839 -1
598 853 -1
598 854 -1
598 855 -1
598 869 -1
598 870 -1
598 871 -1
599 599 2.6E1
599 600 -1
599 614 -1
599 615 -1
599 616 -1
599 838 -1
599 839 -1
599 840 -1
599 854 -1
599 855 -1
599 856 -1
599 870 -1
599 871 -1
599 872 -1
600 600 2.6E1
600 601 -1
600 615 -1
600 616 -1
600 617 -1
600 839 -1
600 840 -1
600 841 -1
600 855 -1
600 856 -1
600 857 -1
600 871 -1
600 872 -1
600 873 -1
601 601 2.6E1
601 602 -1
601 616 -1
601 617 -1
601 618 -1
601 840 -1
601 841 -1
601 842 -1
601 856 -1
601 857 -1
601 858 -1
601 872 -1
601 873 -1
601 874 -1
602 602 2.6E1
602 603 -1
602 617 -1
602 618 -1
602 619 -1
602 841 -1
602 842 -1
602 843 -1
602 857 -1
602 858 -1
602 859 -1
602 873 -1
602 874 -1
602 875 -1
603 603 2.6E1
603 604 -1
603 618 -1
603 619 -1
603 620 -1
603 842 -1
603 843 -1
603 844 -1
603 858 -1
603 859 -1
603 860 -1
603 874 -1
603 875 -1
603 876 -1
604 604 2.6E1
604 605 -1
604 619 -1
604 620 -1
604 621 -1
604 843 -1
604 844 -1
604 845 -1
604 859 -1
604 860 -1
604 861 -1
604 875 -1
604 876 -1
604 877 -1
605 605 2.6E1
605 606 -1
605 620 -1
605 621 -1
605 622 -1
605 844 -1
605 845 -1
605 846 -1
605 860 -1
605 861 -1
605 862 -1
605 876 -1
605 877 -1
605 878 -1
606 606 2.6E1
606 607 -1
606 621 -1
606 622 -1
606 623 -1
606 845 -1
606 846 -1
606 847 -1
606 861 -1
606 862 -1
606 863 -1
606 877 -1
606 878 -1
606 879 -1
607 607 2.6E1
607 608 -1
607 622 -1
607 623 -1
607 624 -1
607 846 -1
607 847 -1
607 848 -1
607 862 -1
607 863 -1
607 864 -1
607 878 -1
607 879 -1
607 880 -1
608 608 2.6E1
608 623 -1
608 624 -1
608 847 -1
608 848 -1
608 863 -1
608 864 -1
608 879 -1
608 880 -1
609 609 2.6E1
609 610 -1
609 625 -1
609 626 -1
609 849 -1
609 850 -1
609 865 -1
609 866 -1
609 881 -1
609 882 -1
610 610 2.6E1
610 611 -1
610 625 -1
610 626 -1
610 627 -1
610 849 -1
610 850 -1
610 851 -1
610 865 -1
610 866 -1
610 867 -1
610 881 -1
610 882 -1
610 883 -1
611 611 2.6E1
611 612 -1
611 626 -1
611 627 -1
611 628 -1
611 850 -1
611 851 -1
611 852 -1
611 866 -1
611 867 -1
611 868 -1
611 882 -1
611 883 -1
611 884 -1
612 612 2.6E1
612 613 -1
612 627 -1
612 628 -1
612 629 -1
612 851 -1
612 852 -1
612 853 -1
612 867 -1
612 868 -1
612 869 -1
612 883 -1
612 884 -1
612 885 -1
613 613 2.6E1
613 614 -1
613 628 -1
613 629 -1
613 630 -1
613 852 -1
613 853 -1
613 854 -1
613 868 -1
613 869 -1
613 870 -1
613 884 -1
613 885 -1
613 886 -1
614 614 2.6E1
614 615 -1
614 629 -1
614 630 -1
614 631 -1
614 853 -1
614 854 -1
614 855 -1
614 869 -1
614 870 -1
614 871 -1
614 885 -1
614 886 -1
614 887 -1
615 615 2.6E1
615 616 -1
615 630 -1
615 631 -1
615 632 -1
615 854 -1
615 855 -1
615 856 -1
615 870 -1
615 871 -1
615 872 -1
615 886 -1
615 887 -1
615 888 -1
616 616 2.6E1
616 617 -1
616 631 -1
616 632 -1
616 633 -1
616 855 -1
616 856 -1
616 857 -1
616 871 -1
616 872 -1
616 873 -1
616 887 -1
616 888 -1
616 889 -1
617 617 2.6E1
617 618 -1
617 632 -1
617 633 -1
617 634 -1
617 856 -1
617 857 -1
617 858 -1
617 872 -1
617 873 -1
617 874 -1
617 888 -1
617 889 -1
617 890 -1
618 618 2.6E1
618 619 -1
618 633 -1
618 634 -1
618 635 -1
618 857 -1
618 858 -1
618 859 -1
618 873 -1
618 874 -1
618 875 -1
618 889 -1
618 890 -1
618 891 -1
619 619 2.6E1
619 620 -1
619 634 -1
619 635 -1
619 636 -1
619 858 -1
619 859 -1
619 860 -1
619 874 -1
619 875 -1
619 876 -1
619 890 -1
619 891 -1
619 892 -1
620 620 2.6E1
620 621 -1
620 635 -1
620 636 -1
620 637 -1
620 859 -1
620 860 -1
620 861 -1
620 875 -1
620 876 -1
620 877 -1
620 891 -1
620 892 -1
620 893 -1
621 621 2.6E1
621 622 -1
621 636 -1
621 637 -1
621 638 -1
621 860 -1
621 861 -1
621 862 -1
621 876 -1
621 877 -1
621 878 -1
621 892 -1
621 893 -1
621 894 -1
622 622 2.6E1
622 623 -1
622 637 -1
622 638 -1
622 639 -1
622 861 -1
622 862 -1
622 863 -1
622 877 -1
622 878 -1
622 879 -1
622 893 -1
622 894 -1
622 895 -1
623 623 2.6E1
623 624 -1
623 638 -1
623 639 -1
623 640 -1
623 862 -1
623 863 -1
623 864 -1
623 878 -1
623 879 -1
623 880 -1
623 894 -1
623 895 -1
623 896 -1
624 624 2.6E1
624 639 -1
624 640 -1
624 863 -1
624 864 -1
624 879 -1
624 880 -1
624 895 -1
624 896 -1
625 625 2.6E1
625 626 -1
625 641 -1
625 642 -1
625 865 -1
625 866 -1
625 881 -1
625 882 -1
625 897 -1
625 898 -1
626 626 2.6E1
626 627 -1
626 641 -1
626 642 -1
626 643 -1
626 865 -1
626 866 -1
626 867 -1
626 881 -1
626 882 -1
626 883 -1
626 897 -1
626 898 -1
626 899 -1
627 627 2.6E1
627 628 -1
627 642 -1
627 643 -1
627 644 -1
627 866 -1
627 867 -1
627 868 -1
627 882 -1
627 883 -1
627 884 -1
627 898 -1
627 899 -1
627 900 -1
628 628 2.6E1
628 629 -1
628 643 -1
628 644 -1
628 645 -1
628 867 -1
628 868 -1
628 869 -1
628 883 -1
628 884 -1
628 885 -1
628 899 -1
628 900 -1
628 901 -1
629 629 2.6E1
629 630 -1
629 644 -1
629 645 -1
629 646 -1
629 868 -1
629 869 -1
629 870 -1
629 884 -1
629 885 -1
629 886 -1
629 900 -1
629 901 -1
629 902 -1
630 630 2.6E1
630 631 -1
630 645 -1
630 646 -1
630 647 -1
630 869 -1
630 870 -1
630 871 -1
630 885 -1
630 886 -1
630 887 -1
630 901 -1
630 902 -1
630 903 -1
631 631 2.6E1
631 632 -1
631 646 -1
631 647 -1
631 648 -1
631 870 -1
631 871 -1
631 872 -1
631 886 -1
631 887 -1
631 888 -1
631 902 -1
631 903 -1
631 904 -1
632 632 2.6E1
632 633 -1
632 647 -1
632 648 -1
632 649 -1
632 871 -1
632 872 -1
632 873 -1
632 887 -1
632 888 -1
632 889 -1
632 903 -1
632 904 -1
632 905 -1
633 633 2.6E1
633 634 -1
633 648 -1
633 649 -1
633 650 -1
633 872 -1
633 873 -1
633 874 -1
633 888 -1
633 889 -1
633 890 -1
633 904 -1
633 905 -1
633 906 -1
634 634 2.6E1
634 635 -1
634 649 -1
634 650 -1
634 651 -1
634 873 -1
634 874 -1
634 875 -1
634 889 -1
634 890 -1
634 891 -1
634 905 -1
634 906 -1
634 907 -1
635 635 2.6E1
635 636 -1
635 650 -1
635 651 -1
635 652 -1
635 874 -1
635 875 -1
635 876 -1
635 890 -1
635 891 -1
635 892 -1
635 906 -1
635 907 -1
635 908 -1
636 636 2.6E1
636 637 -1
636 651 -1
636 652 -1
636 653 -1
636 875 -1
636 876 -1
636 877 -1
636 891 -1
636 892 -1
636 893 -1
636 907 -1
636 908 -1
636 909 -1
637 637 2.6E1
637 638 -1
637 652 -1
637 653 -1
637 654 -1
637 876 -1
637 877 -1
637 878 -1
637 892 -1
637 893 -1
637 894 -1
637 908 -1
637 909 -1
637 910 -1
638 638 2.6E1
638 639 -1
638 653 -1
638 654 -1
638 655 -1
638 877 -1
638 878 -1
638 879 -1
638 893 -1
638 894 -1
638 895 -1
638 909 -1
638 910 -1
638 911 -1
639 639 2.6E1
639 640 -1
639 654 -1
639 655 -1
639 656 -1
639 878 -1
639 879 -1
639 880 -1
639 894 -1
639 895 -1
639 896 -1
639 910 -1
639 911 -1
639 912 -1
640 640 2.6E1
640 655 -1
640 656 -1
640 879 -1
640 880 -1
640 895 -1
640 896 -1
640 911 -1
640 912 -1
641 641 2.6E1
641 642 -1
641 657 -1
641 658 -1
641 881 -1
641 882 -1
641 897 -1
641 898 -1
641 913 -1
641 914 -1
642 642 2.6E1
642 643 -1
642 657 -1
642 658 -1
642 659 -1
642 881 -1
642 882 -1
642 883 -1
642 897 -1
642 898 -1
642 899 -1
642 913 -1
642 914 -1
642 915 -1
643 643 2.6E1
643 644 -1
643 658 -1
643 659 -1
643 660 -1
643 882 -1
643 883 -1
643 884 -1
643 898 -1
643 899 -1
643 900 -1
643 914 -1
643 915 -1
643 916 -1
644 644 2.6E1
644 645 -1
644 659 -1
644 660 -1
644 661 -1
644 883 -1
644 884 -1
644 885 -1
644 899 -1
644 900 -1
644 901 -1
644 915 -1
644 916 -1
644 917 -1
645 645 2.6E1
645 646 -1
645 660 -1
645 661 -1
645 662 -1
645 884 -1
645 885 -1
645 886 -1
645 900 -1
645 901 -1
645 902 -1
645 916 -1
645 917 -1
645 918 -1
646 646 2.6E1
646 647 -1
646 661 -1
646 662 -1
646 663 -1
646 885 -1
646 886 -1
646 887 -1
646 901 -1
646 902 -1
646 903 -1
646 917 -1
646 918 -1
646 919 -1
647 647 2.6E1
647 648 -1
647 662 -1
647 663 -1
647 664 -1
647 886 -1
647 887 -1
647 888 -1
647 902 -1
647 903 -1
647 904 -1
647 918 -1
647 919 -1
647 920 -1
648 648 2.6E1
648 649 -1
648 663 -1
648 664 -1
648 665 -1
648 887 -1
648 888 -1
648 889 -1
648 903 -1
648 904 -1
648 905 -1
648 919 -1
648 920 -1
648 921 -1
649 649 2.6E1
649 650 -1
649 664 -1
649 665 -1
649 666 -1
649 888 -1
649 889 -1
649 890 -1
649 904 -1
649 905 -1
649 906 -1
649 920 -1
649 921 -1
649 922 -1
650 650 2.6E1
650 651 -1
650 665 -1
650 666 -1
650 667 -1
650 889 -1
650 890 -1
650 891 -1
650 905 -1
650 906 -1
650 907 -1
650 921 -1
650 922 -1
650 923 -1
651 651 2.6E1
651 652 -1
651 666 -1
651 667 -1
651 668 -1
651 890 -1
651 891 -1
651 892 -1
651 906 -1
651 907 -1
651 908 -1
651 922 -1
651 923 -1
651 924 -1
652 652 2.6E1
652 653 -1
652 667 -1
652 668 -1
652 669 -1
652 891 -1
652 892 -1
652 893 -1
652 907 -1
652 908 -1
652 909 -1
652 923 -1
652 924 -1
652 925 -1
653 653 2.6E1
653 654 -1
653 668 -1
653 669 -1
653 670 -1
653 892 -1
653 893 -1
653 894 -1
653 908 -1
653 909 -1
653 910 -1
653 924 -1
653 925 -1
653 926 -1
654 654 2.6E1
654 655 -1
654 669 -1
654 670 -1
654 671 -1
654 893 -1
654 894 -1
654 895 -1
654 909 -1
654 910 -1
654 911 -1
654 925 -1
654 926 -1
654 927 -1
655 655 2.6E1
655 656 -1
655 670 -1
655 671 -1
655 672 -1
655 894 -1
655 895 -1
655 896 -1
655 910 -1
655 911 -1
655 912 -1
655 926 -1
655 927 -1
655 928 -1
656 656 2.6E1
656 671 -1
656 672 -1
656 895 -1
656 896 -1
656 911 -1
656 912 -1
656 927 -1
656 928 -1
657 657 2.6E1
657 658 -1
657 673 -1
657 674 -1
657 897 -1
657 898 -1
657 913 -1
657 914 -1
657 929 -1
657 930 -1
658 658 2.6E1
658 659 -1
658 673 -1
658 674 -1
658 675 -1
658 897 -1
658 898 -1
658 899 -1
658 913 -1
658 914 -1
658 915 -1
658 929 -1
658 930 -1
658 931 -1
659 659 2.6E1
659 660 -1
659 674 -1
659 675 -1
659 676 -1
659 898 -1
659 899 -1
659 900 -1
659 914 -1
659 915 -1
659 916 -1
659 930 -1
659 931 -1
659 932 -1
660 660 2.6E1
660 661 -1
660 675 -1
660 676 -1
660 677 -1
660 899 -1
660 900 -1
660 901 -1
660 915 -1
660 916 -1
660 917 -1
660 931 -1
660 932 -1
660 933 -1
661 661 2.6E1
661 662 -1
661 676 -1
661 677 -1
661 678 -1
661 900 -1
661 901 -1
661 902 -1
661 916 -1
661 917 -1
661 918 -1
661 932 -1
661 933 -1
661 934 -1
662 662 2.6E1
662 663 -1
662 677 -1
662 678 -1
662 679 -1
662 901 -1
662 902 -1
662 903 -1
662 917 -1
662 918 -1
662 919 -1
662 933 -1
662 934 -1
662 935 -1
663 663 2.6E1
663 664 -1
663 678 -1
663 679 -1
663 680 -1
663 902 -1
663 903 -1
663 904 -1
663 918 -1
663 919 -1
663 920 -1
663 934 -1
663 935 -1
663 936 -1
664 664 2.6E1
664 665 -1
664 679 -1
664 680 -1
664 681 -1
664 903 -1
664 904 -1
664 905 -1
664 919 -1
664 920 -1
664 921 -1
664 935 -1
664 936 -1
664 937 -1
665 665 2.6E1
665 666 -1
665 680 -1
665 681 -1
665 682 -1
665 904 -1
665 905 -1
665 906 -1
665 920 -1
665 921 -1
665 922 -1
665 936 -1
665 937 -1
665 938 -1
666 666 2.6E1
666 667 -1
666 681 -1
666 682 -1
666 683 -1
666 905 -1
666 906 -1
666 907 -1
666 921 -1
666 922 -1
666 923 -1
666 937 -1
666 938 -1
666 939 -1
667 667 2.6E1
667 668 -1
667 682 -1
667 683 -1
667 684 -1
667 906 -1
667 907 -1
667 908 -1
667 922 -1
667 923 -1
667 924 -1
667 938 -1
667 939 -1
667 940 -1
668 668 2.6E1
668 669 -1
668 683 -1
668 684 -1
668 685 -1
668 907 -1
668 908 -1
668 909 -1
668 923 -1
668 924 -1
668 925 -1
668 939 -1
668 940 -1
668 941 -1
669 669 2.6E1
669 670 -1
669 684 -1
669 685 -1
669 686 -1
669 908 -1
669 909 -1
669 910 -1
669 924 -1
669 925 -1
669 926 -1
669 940 -1
669 941 -1
669 942 -1
670 670 2.6E1
670 671 -1
670 685 -1
670 686 -1
670 687 -1
670 909 -1
670 910 -1
670 911 -1
670 925 -1
670 926 -1
670 927 -1
670 941 -1
670 942 -1
670 943 -1
671 671 2.6E1
671 672 -1
671 686 -1
671 687 -1
671 688 -1
671 910 -1
671 911 -1
671 912 -1
671 926 -1
671 927 -1
671 928 -1
671 942 -1
671 943 -1
671 944 -1
672 672 2.6E1
672 687 -1
672 688 -1
672 911 -1
672 912 -1
672 927 -1
672 928 -1
672 943 -1
672 944 -1
673 673 2.6E1
673 674 -1
673 689 -1
673 690 -1
673 913 -1
673 914 -1
673 929 -1
673 930 -1
673 945 -1
673 946 -1
674 674 2.6E1
674 675 -1
674 689 -1
674 690 -1
674 691 -1
674 913 -1
674 914 -1
674 915 -1
674 929 -1
674 930 -1
674 931 -1
674 945 -1
674 946 -1
674 947 -1
675 675 2.6E1
675 676 -1
675 690 -1
675 691 -1
675 692 -1
675 914 -1
675 915 -1
675 916 -1
675 930 -1
675 931 -1
675 932 -1
675 946 -1
675 947 -1
675 948 -1
676 676 2.6E1
676 677 -1
676 691 -1
676 692 -1
676 693 -1
676 915 -1
676 916 -1
676 917 -1
676 931 -1
676 932 -1
676 933 -1
676 947 -1
676 948 -1
676 949 -1
677 677 2.6E1
677 678 -1
677 692 -1
677 693 -1
677 694 -1
677 916 -1
677 917 -1
677 918 -1
677 932 -1
677 933 -1
677 934 -1
677 948 -1
677 949 -1
677 950 -1
678 678 2.6E1
678 679 -1
678 693 -1
678 694 -1
678 695 -1
678 917 -1
678 918 -1
678 919 -1
678 933 -1
678 934 -1
678 935 -1
678 949 -1
678 950 -1
678 951 -1
679 679 2.6E1
679 680 -1
679 694 -1
679 695 -1
679 696 -1
679 918 -1
679 919 -1
679 920 -1
679 934 -1
679 935 -1
679 936 -1
679 950 -1
679 951 -1
679 952 -1
680 680 2.6E1
680 681 -1
680 695 -1
680 696 -1
680 697 -1
680 919 -1
680 920 -1
680 921 -1
680 935 -1
680 936 -1
680 937 -1
680 951 -1
680 952 -1
680 953 -1
681 681 2.6E1
681 682 -1
681 696 -1
681 697 -1
681 698 -1
681 920 -1
681 921 -1
681 922 -1
681 936 -1
681 937 -1
681 938 -1
681 952 -1
681 953 -1
681 954 -1
682 682 2.6E1
682 683 -1
682 697 -1
682 698 -1
682 699 -1
682 921 -1
682 922 -1
682 923 -1
682 937 -1
682 938 -1
682 939 -1
682 953 -1
682 954 -1
682 955 -1
683 683 2.6E1
683 684 -1
683 698 -1
683 699 -1
683 700 -1
683 922 -1
683 923 -1
683 924 -1
683 938 -1
683 939 -1
683 940 -1
683 954 -1
683 955 -1
683 956 -1
684 684 2.6E1
684 685 -1
684 699 -1
684 700 -1
684 701 -1
684 923 -1
684 924 -1
684 925 -1
684 939 -1
684 940 -1
684 941 -1
684 955 -1
684 956 -1
684 957 -1
685 685 2.6E1
685 686 -1
685 700 -1
685 701 -1
685 702 -1
685 924 -1
685 925 -1
685 926 -1
685 940 -1
685 941 -1
685 942 -1
685 956 -1
685 957 -1
685 958 -1
686 686 2.6E1
686 687 -1
686 701 -1
686 702 -1
686 703 -1
686 925 -1
686 926 -1
686 927 -1
686 941 -1
686 942 -1
686 943 -1
686 957 -1
686 958 -1
686 959 -1
687 687 2.6E1
687 688 -1
687 702 -1
687 703 -1
687 704 -1
687 926 -1
687 927 -1
687 928 -1
687 942 -1
687 943 -1
687 944 -1
687 958 -1
687 959 -1
687 960 -1
688 688 2.6E1
688 703 -1
688 704 -1
688 927 -1
688 928 -1
688 943 -1
688 944 -1
688 959 -1
688 960 -1
689 689 2.6E1
689 690 -1
689 705 -1
689 706 -1
689 929 -1
689 930 -1
689 945 -1
689 946 -1
689 961 -1
689 962 -1
690 690 2.6E1
690 691 -1
690 705 -1
690 706 -1
690 707 -1
690 929 -1
690 930 -1
690 931 -1
690 945 -1
690 946 -1
690 947 -1
690 961 -1
690 962 -1
690 963 -1
691 691 2.6E1
691 692 -1
691 706 -1
691 707 -1
691 708 -1
691 930 -1
691 931 -1
691 932 -1
691 946 -1
691 947 -1
691 948 -1
691 962 -1
691 963 -1
691 964 -1
692 692 2.6E1
692 693 -1
692 707 -1
692 708 -1
692 709 -1
692 931 -1
692 932 -1
692 933 -1
692 947 -1
692 948 -1
692 949 -1
692 963 -1
692 964 -1
692 965 -1
693 693 2.6E1
693 694 -1
693 708 -1
693 709 -1
693 710 -1
693 932 -1
693 933 -1
693 934 -1
693 948 -1
693 949 -1
693 950 -1
693 964 -1
693 965 -1
693 966 -1
694 694 2.6E1
694 695 -1
694 709 -1
694 710 -1
694 711 -1
694 933 -1
694 934 -1
694 935 -1
694 949 -1
694 950 -1
694 951 -1
694 965 -1
694 966 -1
694 967 -1
695 695 2.6E1
695 696 -1
695 710 -1
695 711 -1
695 712 -1
695 934 -1
695 935 -1
695 936 -1
695 950 -1
695 951 -1
695 952 -1
695 966 -1
695 967 -1
695 968 -1
696 696 2.6E1
696 697 -1
696 711 -1
696 712 -1
696 713 -1
696 935 -1
696 936 -1
696 937 -1
696 951 -1
696 952 -1
696 953 -1
696 967 -1
696 968 -1
696 969 -1
697 697 2.6E1
697 698 -1
697 712 -1
697 713 -1
697 714 -1
697 936 -1
697 937 -1
697 938 -1
697 952 -1
697 953 -1
697 954 -1
697 968 -1
697 969 -1
697 970 -1
698 698 2.6E1
698 699 -1
698 713 -1
698 714 -1
698 715 -1
698 937 -1
698 938 -1
698 939 -1
698 953 -1
698 954 -1
698 955 -1
698 969 -1
698 970 -1
698 971 -1
699 699 2.6E1
699 700 -1
699 714 -1
699 715 -1
699 716 -1
699 938 -1
699 939 -1
699 940 -1
699 954 -1
699 955 -1
699 956 -1
699 970 -1
699 971 -1
699 972 -1
700 700 2.6E1
700 701 -1
700 715 -1
700 716 -1
700 717 -1
700 939 -1
700 940 -1
700 941 -1
700 955 -1
700 956 -1
700 957 -1
700 971 -1
700 972 -1
700 973 -1
701 701 2.6E1
701 702 -1
701 716 -1
701 717 -1
701 718 -1
701 940 -1
701 941 -1
701 942 -1
701 956 -1
701 957 -1
701 958 -1
701 972 -1
701 973 -1
701 974 -1
702 702 2.6E1
702 703 -1
702 717 -1
702 718 -1
702 719 -1
702 941 -1
702 942 -1
702 943 -1
702 957 -1
702 958 -1
702 959 -1
702 973 -1
702 974 -1
702 975 -1
703 703 2.6E1
703 704 -1
703 718 -1
703 719 -1
703 720 -1
703 942 -1
703 943 -1
703 944 -1
703 958 -1
703 959 -1
703 960 -1
703 974 -1
703 975 -1
703 976 -1
704 704 2.6E1
704 719 -1
704 720 -1
704 943 -1
704 944 -1
704 959 -1
704 960 -1
704 975 -1
704 976 -1
705 705 2.6E1
705 706 -1
705 721 -1
705 722 -1
705 945 -1
705 946 -1
705 961 -1
705 962 -1
705 977 -1
705 978 -1
706 706 2.6E1
706 707 -1
706 721 -1
706 722 -1
706 723 -1
706 945 -1
706 946 -1
706 947 -1
706 961 -1
706 962 -1
706 963 -1
706 977 -1
706 978 -1
706 979 -1
707 707 2.6E1
707 708 -1
707 722 -1
707 723 -1
707 724 -1
707 946 -1
707 947 -1
707 948 -1
707 962 -1
707 963 -1
707 964 -1
707 978 -1
707 979 -1
707 980 -1
708 708 2.6E1
708 709 -1
708 723 -1
708 724 -1
708 725 -1
708 947 -1
708 948 -1
708 949 -1
708 963 -1
708 964 -1
708 965 -1
708 979 -1
708 980 -1
708 981 -1
709 709 2.6E1
709 710 -1
709 724 -1
709 725 -1
709 726 -1
709 948 -1
709 949 -1
709 950 -1
709 964 -1
709 965 -1
709 966 -1
709 980 -1
709 981 -1
709 982 -1
710 710 2.6E1
710 711 -1
710 725 -1
710 726 -1
710 727 -1
710 949 -1
710 950 -1
710 951 -1
710 965 -1
710 966 -1
710 967 -1
710 981 -1
710 982 -1
710 983 -1
711 711 2.6E1
711 712 -1
711 726 -1
711 727 -1
711 728 -1
711 950 -1
711 951 -1
711 952 -1
711 966 -1
711 967 -1
711 968 -1
711 982 -1
711 983 -1
711 984 -1
712 712 2.6E1
712 713 -1
712 727 -1
712 728 -1
712 729 -1
712 951 -1
712 952 -1
712 953 -1
712 967 -1
712 968 -1
712 969 -1
712 983 -1
712 984 -1
712 985 -1
713 713 2.6E1
713 714 -1
713 728 -1
713 729 -1
713 730 -1
713 952 -1
713 953 -1
713 954 -1
713 968 -1
713 969 -1
713 970 -1
713 984 -1
713 985 -1
713 986 -1
714 714 2.6E1
714 715 -1
714 729 -1
714 730 -1
714 731 -1
714 953 -1
714 954 -1
714 955 -1
714 969 -1
714 970 -1
714 971 -1
714 985 -1
714 986 -1
714 987 -1
715 715 2.6E1
715 716 -1
715 730 -1
715 731 -1
715 732 -1
715 954 -1
715 955 -1
715 956 -1
715 970 -1
715 971 -1
715 972 -1
715 986 -1
715 987 -1
715 988 -1
716 716 2.6E1
716 717 -1
716 731 -1
716 732 -1
716 733 -1
716 955 -1
716 956 -1
716 957 -1
716 971 -1
716 972 -1
716 973 -1
716 987 -1
716 988 -1
716 989 -1
717 717 2.6E1
717 718 -1
717 732 -1
717 733 -1
717 734 -1
717 956 -1
717 957 -1
717 958 -1
717 972 -1
717 973 -1
717 974 -1
717 988 -1
717 989 -1
717 990 -1
718 718 2.6E1
718 719 -1
718 733 -1
718 734 -1
718 735 -1
718 957 -1
718 958 -1
718 959 -1
718 973 -1
718 974 -1
718 975 -1
718 989 -1
718 990 -1
718 991 -1
719 719 2.6E1
719 720 -1
719 734 -1
719 735 -1
719 736 -1
719 958 -1
719 959 -1
719 960 -1
719 974 -1
719 975 -1
719 976 -1
719 990 -1
719 991 -1
719 992 -1
720 720 2.6E1
720 735 -1
720 736 -1
720 959 -1
720 960 -1
720 975 -1
720 976 -1
720 991 -1
720 992 -1
721 721 2.6E1
721 722 -1
721 737 -1
721 738 -1
721 961 -1
721 962 -1
721 977 -1
721 978 -1
721 993 -1
721 994 -1
722 722 2.6E1
722 723 -1
722 737 -1
722 738 -1
722 739 -1
722 961 -1
722 962 -1
722 963 -1
722 977 -1
722 978 -1
722 979 -1
722 993 -1
722 994 -1
722 995 -1
723 723 2.6E1
723 724 -1
723 738 -1
723 739 -1
723 740 -1
723 962 -1
723 963 -1
723 964 -1
723 978 -1
723 979 -1
723 980 -1
723 994 -1
723 995 -1
723 996 -1
724 724 2.6E1
724 725 -1
724 739 -1
724 740 -1
724 741 -1
724 963 -1
724 964 -1
724 965 -1
724 979 -1
724 980 -1
724 981 -1
724 995 -1
724 996 -1
724 997 -1
725 725 2.6E1
725 726 -1
725 740 -1
725 741 -1
725 742 -1
725 964 -1
725 965 -1
725 966 -1
725 980 -1
725 981 -1
725 982 -1
725 996 -1
725 997 -1
725 998 -1
726 726 2.6E1
726 727 -1
726 741 -1
726 742 -1
726 743 -1
726 965 -1
726 966 -1
726 967 -1
726 981 -1
726 982 -1
726 983 -1
726 997 -1
726 998 -1
726 999 -1
727 727 2.6E1
727 728 -1
727 742 -1
727 743 -1
727 744 -1
727 966 -1
727 967 -1
727 968 -1
727 982 -1
727 983 -1
727 984 -1
727 998 -1
727 999 -1
727 1000 -1
728 728 2.6E1
728 729 -1
728 743 -1
728 744 -1
728 745 -1
728 967 -1
728 968 -1
728 969 -1
728 983 -1
728 984 -1
728 985 -1
728 999 -1
728 1000 -1
728 1001 -1
729 729 2.6E1
729 730 -1
729 744 -1
729 745 -1
729 746 -1
729 968 -1
729 969 -1
729 970 -1
729 984 -1
729 985 -1
729 986 -1
729 1000 -1
729 1001 -1
729 1002 -1
730 730 2.6E1
730 731 -1
730 745 -1
730 746 -1
730 747 -1
730 969 -1
730 970 -1
730 971 -1
730 985 -1
730 986 -1
730 987 -1
730 1001 -1
730 1002 -1
730 1003 -1
731 731 2.6E1
731 732 -1
731 746 -1
731 747 -1
731 748 -1
731 970 -1
731 971 -1
731 972 -1
731 986 -1
731 987 -1
731 988 -1
731 1002 -1
731 1003 -1
731 1004 -1
732 732 2.6E1
732 733 -1
732 747 -1
732 748 -1
732 749 -1
732 971 -1
732 972 -1
732 973 -1
732 987 -1
732 988 -1
732 989 -1
732 1003 -1
732 1004 -1
732 1005 -1
733 733 2.6E1
733 734 -1
733 748 -1
733 749 -1
733 750 -1
733 972 -1
733 973 -1
733 974 -1
733 988 -1
733 989 -1
733 990 -1
733 1004 -1
733 1005 -1
733 1006 -1
734 734 2.6E1
734 735 -1
734 749 -1
734 750 -1
734 751 -1
734 973 -1
734 974 -1
734 975 -1
734 989 -1
734 990 -1
734 991 -1
734 1005 -1
734 1006 -1
734 1007 -1
735 735 2.6E1
735 736 -1
735 750 -1
735 751 -1
735 752 -1
735 974 -1
735 975 -1
735 976 -1
735 990 -1
735 991 -1
735 992 -1
735 1006 -1
735 1007 -1
735 1008 -1
736 736 2.6E1
736 751 -1
736 752 -1
736 975 -1
736 976 -1
736 991 -1
736 992 -1
736 1007 -1
736 1008 -1
737 737 2.6E1
737 738 -1
737 753 -1
737 754 -1
737 977 -1
737 978 -1
737 993 -1
737 994 -1
737 1009 -1
737 1010 -1
738 738 2.6E1
738 739 -1
738 753 -1
738 754 -1
738 755 -1
738 977 -1
738 978 -1
738 979 -1
738 993 -1
738 994 -1
738 995 -1
738 1009 -1
738 1010 -1
738 1011 -1
739 739 2.6E1
739 740 -1
739 754 -1
739 755 -1
739 756 -1
739 978 -1
739 979 -1
739 980 -1
739 994 -1
739 995 -1
739 996 -1
739 1010 -1
739 1011 -1
739 1012 -1
740 740 2.6E1
740 741 -1
740 755 -1
740 756 -1
740 757 -1
740 979 -1
740 980 -1
740 981 -1
740 995 -1
740 996 -1
740 997 -1
740 1011 -1
740 1012 -1
740 1013 -1
741 741 2.6E1
741 742 -1
741 756 -1
741 757 -1
741 758 -1
741 980 -1
741 981 -1
741 982 -1
741 996 -1
741 997 -1
741 998 -1
741 1012 -1
741 1013 -1
741 1014 -1
742 742 2.6E1
742 743 -1
742 757 -1
742 758 -1
742 759 -1
742 981 -1
742 982 -1
742 983 -1
742 997 -1
742 998 -1
742 999 -1
742 1013 -1
742 1014 -1
742 1015 -1
743 743 2.6E1
743 744 -1
743 758 -1
743 759 -1
743 760 -1
743 982 -1
743 983 -1
743 984 -1
743 998 -1
743 999 -1
743 1000 -1
743 1014 -1
743 1015 -1
743 1016 -1
744 744 2.6E1
744 745 -1
744 759 -1
744 760 -1
744 761 -1
744 983 -1
744 984 -1
744 985 -1
744 999 -1
744 1000 -1
744 1001 -1
744 1015 -1
744 1016 -1
744 1017 -1
745 745 2.6E1
745 746 -1
745 760 -1
745 761 -1
745 762 -1
745 984 -1
745 985 -1
745 986 -1
745 1000 -1
745 1001 -1
745 1002 -1
745 1016 -1
745 1017 -1
745 1018 -1
746 746 2.6E1
746 747 -1
746 761 -1
746 762 -1
746 763 -1
746 985 -1
746 986 -1
746 987 -1
746 1001 -1
746 1002 -1
746 1003 -1
746 1017 -1
746 1018 -1
746 1019 -1
747 747 2.6E1
747 748 -1
747 762 -1
747 763 -1
747 764 -1
747 986 -1
747 987 -1
747 988 -1
747 1002 -1
747 1003 -1
747 1004 -1
747 1018 -1
747 1019 -1
747 1020 -1
748 748 2.6E1
748 749 -1
748 763 -1
748 764 -1
748 765 -1
748 987 -1
748 988 -1
748 989 -1
748 1003 -1
748 1004 -1
748 1005 -1
748 1019 -1
748 1020 -1
748 1021 -1
749 749 2.6E1
749 750 -1
749 764 -1
749 765 -1
749 766 -1
749 988 -1
749 989 -1
749 990 -1
749 1004 -1
749 1005 -1
749 1006 -1
749 1020 -1
749 1021 -1
749 1022 -1
750 750 2.6E1
750 751 -1
750 765 -1
750 766 -1
750 767 -1
750 989 -1
750 990 -1
750 991 -1
750 1005 -1
750 1006 -1
750 1007 -1
750 1021 -1
750 1022 -1
750 1023 -1
751 751 2.6E1
751 752 -1
751 766 -1
751 767 -1
751 768 -1
751 990 -1
751 991 -1
751 992 -1
751 1006 -1
751 1007 -1
751 1008 -1
751 1022 -1
751 1023 -1
751 1024 -1
752 752 2.6E1
752 767 -1
752 768 -1
752 991 -1
752 992 -1
752 1007 -1
752 1008 -1
752 1023 -1
752 1024 -1
753 753 2.6E1
753 754 -1
753 993 -1
753 994 -1
753 1009 -1
753 1010 -1
754 754 2.6E1
754 755 -1
754 993 -1
754 994 -1
754 995 -1
754 1009 -1
754 1010 -1
754 1011 -1
755 755 2.6E1
755 756 -1
755 994 -1
755 995 -1
755 996 -1
755 1010 -1
755 1011 -1
755 1012 -1
756 756 2.6E1
756 757 -1
756 995 -1
756 996 -1
756 997 -1
756 1011 -1
756 1012 -1
756 1013 -1
757 757 2.6E1
757 758 -1
757 996 -1
757 997 -1
757 998 -1
757 1012 -1
757 1013 -1
757 1014 -1
758 758 2.6E1
758 759 -1
758 997 -1
758 998 -1
758 999 -1
758 1013 -1
758 1014 -1
758 1015 -1
759 759 2.6E1
759 760 -1
759 998 -1
759 999 -1
759 1000 -1
759 1014 -1
759 1015 -1
759 1016 -1
760 760 2.6E1
760 761 -1
760 999 -1
760 1000 -1
760 1001 -1
760 1015 -1
760 1016 -1
760 1017 -1
761 761 2.6E1
761 762 -1
761 1000 -1
761 1001 -1
761 1002 -1
761 1016 -1
761 1017 -1
761 1018 -1
762 762 2.6E1
762 763 -1
762 1001 -1
762 1002 -1
762 1003 -1
762 1017 -1
762 1018 -1
762 1019 -1
763 763 2.6E1
763 764 -1
763 1002 -1
763 1003 -1
763 1004 -1
763 1018 -1
763 1019 -1
763 1020 -1
764 764 2.6E1
764 765 -1
764 1003 -1
764 1004 -1
764 1005 -1
764 1019 -1
764 1020 -1
764 1021 -1
765 765 2.6E1
765 766 -1
765 1004 -1
765 1005 -1
765 1006 -1
765 1020 -1
765 1021 -1
765 1022 -1
766 766 2.6E1
766 767 -1
766 1005 -1
766 1006 -1
766 1007 -1
766 1021 -1
766 1022 -1
766 1023 -1
767 767 2.6E1
767 768 -1
767 1006 -1
767 1007 -1
767 1008 -1
767 1022 -1
767 1023 -1
767 1024 -1
768 768 2.6E1
768 1007 -1
768 1008 -1
768 1023 -1
768 1024 -1
769 769 2.6E1
769 770 -1
769 785 -1
769 786 -1
769 1025 -1
769 1026 -1
769 1041 -1
769 1042 -1
770 770 2.6E1
770 771 -1
770 785 -1
770 786 -1
770 787 -1
770 1025 -1
770 1026 -1
770 1027 -1
770 1041 -1
770 1042 -1
770 1043 -1
771 771 2.6E1
771 772 -1
771 786 -1
771 787 -1
771 788 -1
771 1026 -1
771 1027 -1
771 1028 -1
771 1042 -1
771 1043 -1
771 1044 -1
772 772 2.6E1
772 773 -1
772 787 -1
772 788 -1
772 789 -1
772 1027 -1
772 1028 -1
772 1029 -1
772 1043 -1
772 1044 -1
772 1045 -1
773 773 2.6E1
773 774 -1
773 788 -1
773 789 -1
773 790 -1
773 1028 -1
773 1029 -1
773 1030 -1
773 1044 -1
773 1045 -1
773 1046 -1
774 774 2.6E1
774 775 -1
774 789 -1
774 790 -1
774 791 -1
774 1029 -1
774 1030 -1
774 1031 -1
774 1045 -1
774 1046 -1
774 1047 -1
775 775 2.6E1
775 776 -1
775 790 -1
775 791 -1
775 792 -1
775 1030 -1
775 1031 -1
775 1032 -1
775 1046 -1
775 1047 -1
775 1048 -1
776 776 2.6E1
776 777 -1
776 791 -1
776 792 -1
776 793 -1
776 1031 -1
776 1032 -1
776 1033 -1
776 1047 -1
776 1048 -1
776 1049 -1
777 777 2.6E1
777 778 -1
777 792 -1
777 793 -1
777 794 -1
777 1032 -1
777 1033 -1
777 1034 -1
777 1048 -1
777 1049 -1
777 1050 -1
778 778 2.6E1
778 779 -1
778 793 -1
778 794 -1
778 795 -1
778 1033 -1
778 1034 -1
778 1035 -1
778 1049 -1
778 1050 -1
778 1051 -1
779 779 2.6E1
779 780 -1
779 794 -1
779 795 -1
779 796 -1
779 1034 -1
779 1035 -1
779 1036 -1
779 1050 -1
779 1051 -1
779 1052 -1
780 780 2.6E1
780 781 -1
780 795 -1
780 796 -1
780 797 -1
780 1035 -1
780 1036 -1
780 1037 -1
780 1051 -1
780 1052 -1
780 1053 -1
781 781 2.6E1
781 782 -1
781 796 -1
781 797 -1
781 798 -1
781 1036 -1
781 1037 -1
781 1038 -1
781 1052 -1
781 1053 -1
781 1054 -1
782 782 2.6E1
782 783 -1
782 797 -1
782 798 -1
782 799 -1
782 1037 -1
782 1038 -1
782 1039 -1
782 1053 -1
782 1054 -1
782 1055 -1
783 783 2.6E1
783 784 -1
783 798 -1
783 799 -1
783 800 -1
783 1038 -1
783 1039 -1
783 1040 -1
783 1054 -1
783 1055 -1
783 1056 -1
784 784 2.6E1
784 799 -1
784 800 -1
784 1039 -1
784 1040 -1
784 1055 -1
784 1056 -1
785 785 2.6E1
785 786 -1
785 801 -1
785 802 -1
785 1025 -1
785 1026 -1
785 1041 -1
785 1042 -1
785 1057 -1
785 1058 -1
786 786 2.6E1
786 787 -1
786 801 -1
786 802 -1
786 803 -1
786 1025 -1
786 1026 -1
786 1027 -1
786 1041 -1
786 1042 -1
786 1043 -1
786 1057 -1
786 1058 -1
786 1059 -1
787 787 2.6E1
787 788 -1
787 802 -1
787 803 -1
787 804 -1
787 1026 -1
787 1027 -1
787 1028 -1
787 1042 -1
787 1043 -1
787 1044 -1
787 1058 -1
787 1059 -1
787 1060 -1
788 788 2.6E1
788 789 -1
788 803 -1
788 804 -1
788 805 -1
788 1027 -1
788 1028 -1
788 1029 -1
788 1043 -1
788 1044 -1
788 1045 -1
788 1059 -1
788 1060 -1
788 1061 -1
789 789 2.6E1
789 790 -1
789 804 -1
789 805 -1
789 806 -1
789 1028 -1
789 1029 -1
789 1030 -1
789 1044 -1
789 1045 -1
789 1046 -1
789 1060 -1
789 1061 -1
789 1062 -1
790 790 2.6E1
790 791 -1
790 805 -1
790 806 -1
790 807 -1
790 1029 -1
790 1030 -1
790 1031 -1
790 1045 -1
790 1046 -1
790 1047 -1
790 1061 -1
790 1062 -1
790 1063 -1
791 791 2.6E1
791 792 -1
791 806 -1
791 807 -1
791 808 -1
791 1030 -1
791 1031 -1
791 1032 -1
791 1046 -1
791 1047 -1
791 1048 -1
791 1062 -1
791 1063 -1
791 1064 -1
792 792 2.6E1
792 793 -1
792 807 -1
792 808 -1
792 809 -1
792 1031 -1
792 1032 -1
792 1033 -1
792 1047 -1
792 1048 -1
792 1049 -1
792 1063 -1
792 1064 -1
792 1065 -1
793 793 2.6E1
793 794 -1
793 808 -1
793 809 -1
793 810 -1
793 1032 -1
793 1033 -1
793 1034 -1
793 1048 -1
793 1049 -1
793 1050 -1
793 1064 -1
793 1065 -1
793 1066 -1
794 794 2.6E1
794 795 -1
794 809 -1
794 810 -1
794 811 -1
794 1033 -1
794 1034 -1
794 1035 -1
794 1049 -1
794 1050 -1
794 1051 -1
794 1065 -1
794 1066 -1
794 1067 -1
795 795 2.6E1
795 796 -1
795 810 -1
795 811 -1
795 812 -1
795 1034 -1
795 1035 -1
795 1036 -1
795 1050 -1
795 1051 -1
795 1052 -1
795 1066 -1
795 1067 -1
795 1068 -1
796 796 2.6E1
796 797 -1
796 811 -1
796 812 -1
796 813 -1
796 1035 -1
796 1036 -1
796 1037 -1
796 1051 -1
796 1052 -1
796 1053 -1
796 1067 -1
796 1068 -1
796 1069 -1
797 797 2.6E1
797 798 -1
797 812 -1
797 813 -1
797 814 -1
797 1036 -1
797 1037 -1
797 1038 -1
797 1052 -1
797 1053 -1
797 1054 -1
797 1068 -1
797 1069 -1
797 1070 -1
798 798 2.6E1
798 799 -1
798 813 -1
798 814 -1
798 815 -1
798 1037 -1
798 1038 -1
798 1039 -1
798 1053 -1
798 1054 -1
798 1055 -1
798 1069 -1
798 1070 -1
798 1071 -1
799 799 2.6E1
799 800 -1
799 814 -1
799 815 -1
799 816 -1
799 1038 -1
799 1039 -1
799 1040 -1
799 1054 -1
799 1055 -1
799 1056 -1
799 1070 -1
799 1071 -1
799 1072 -1
800 800 2.6E1
800 815 -1
800 816 -1
800 1039 -1
800 1040 -1
800 1055 -1
800 1056 -1
800 1071 -1
800 1072 -1
801 801 2.6E1
801 802 -1
801 817 -1
801 818 -1
801 1041 -1
801 1042 -1
801 1057 -1
801 1058 -1
801 1073 -1
801 1074 -1
802 802 2.6E1
802 803 -1
802 817 -1
802 818 -1
802 819 -1
802 1041 -1
802 1042 -1
802 1043 -1
802 1057 -1
802 1058 -1
802 1059 -1
802 1073 -1
802 1074 -1
802 1075 -1
803 803 2.6E1
803 804 -1
803 818 -1
803 819 -1
803 820 -1
803 1042 -1
803 1043 -1
803 1044 -1
803 1058 -1
803 1059 -1
803 1060 -1
803 1074 -1
803 1075 -1
803 1076 -1
804 804 2.6E1
804 805 -1
804 819 -1
804 820 -1
804 821 -1
804 1043 -1
804 1044 -1
804 1045 -1
804 1059 -1
804 1060 -1
804 1061 -1
804 1075 -1
804 1076 -1
804 1077 -1
805 805 2.6E1
805 806 -1
805 820 -1
805 821 -1
805 822 -1
805 1044 -1
805 1045 -1
805 1046 -1
805 1060 -1
805 1061 -1
805 1062 -1
805 1076 -1
805 1077 -1
805 1078 -1
806 806 2.6E1
806 807 -1
806 821 -1
806 822 -1
806 823 -1
806 1045 -1
806 1046 -1
806 1047 -1
806 1061 -1
806 1062 -1
806 1063 -1
806 1077 -1
806 1078 -1
806 1079 -1
807 807 2.6E1
807 808 -1
807 822 -1
807 823 -1
807 824 -1
807 1046 -1
807 1047 -1
807 1048 -1
807 1062 -1
807 1063 -1
807 1064 -1
807 1078 -1
807 1079 -1
807 1080 -1
808 808 2.6E1
808 809 -1
808 823 -1
808 824 -1
808 825 -1
808 1047 -1
808 1048 -1
808 1049 -1
808 1063 -1
808 1064 -1
808 1065 -1
808 1079 -1
808 1080 -1
808 1081 -1
809 809 2.6E1
809 810 -1
809 824 -1
809 825 -1
809 826 -1
809 1048 -1
809 1049 -1
809 1050 -1
809 1064 -1
809 1065 -1
809 1066 -1
809 1080 -1
809 1081 -1
809 1082 -1
810 810 2.6E1
810 811 -1
810 825 -1
810 826 -1
810 827 -1
810 1049 -1
810 1050 -1
810 1051 -1
810 1065 -1
810 1066 -1
810 1067 -1
810 1081 -1
810 1082 -1
810 1083 -1
811 811 2.6E1
811 812 -1
811 826 -1
811 827 -1
811 828 -1
811 1050 -1
811 1051 -1
811 1052 -1
811 1066 -1
811 1067 -1
811 1068 -1
811 1082 -1
811 1083 -1
811 1084 -1
812 812 2.6E1
812 813 -1
812 827 -1
812 828 -1
812 829 -1
812 1051 -1
812 1052 -1
812 1053 -1
812 1067 -1
812 1068 -1
812 1069 -1
812 1083 -1
812 1084 -1
812 1085 -1
813 813 2.6E1
813 814 -1
813 828 -1
813 829 -1
813 830 -1
813 1052 -1
813 1053 -1
813 1054 -1
813 1068 -1
813 1069 -1
813 1070 -1
813 1084 -1
813 1085 -1
813 1086 -1
814 814 2.6E1
814 815 -1
814 829 -1
814 830 -1
814 831 -1
814 1053 -1
814 1054 -1
814 1055 -1
814 1069 -1
814 1070 -1
814 1071 -1
814 1085 -1
814 1086 -1
814 1087 -1
815 815 2.6E1
815 816 -1
815 830 -1
815 831 -1
815 832 -1
815 1054 -1
815 1055 -1
815 1056 -1
815 1070 -1
815 1071 -1
815 1072 -1
815 1086 -1
815 1087 -1
815 1088 -1
816 816 2.6E1
816 831 -1
816 832 -1
816 1055 -1
816 1056 -1
816 1071 -1
816 1072 -1
816 1087 -1
816 1088 -1
817 817 2.6E1
817 818 -1
817 833 -1
817 834 -1
817 1057 -1
817 1058 -1
817 1073 -1
817 1074 -1
817 1089 -1
817 1090 -1
818 818 2.6E1
818 819 -1
818 833 -1
818 834 -1
818 835 -1
818 1057 -1
818 1058 -1
818 1059 -1
818 1073 -1
818 1074 -1
818 1075 -1
818 1089 -1
818 1090 -1
818 1091 -1
819 819 2.6E1
819 820 -1
819 834 -1
819 835 -1
819 836 -1
819 1058 -1
819 1059 -1
819 1060 -1
819 1074 -1
819 1075 -1
819 1076 -1
819 1090 -1
819 1091 -1
819 1092 -1
820 820 2.6E1
820 821 -1
820 835 -1
820 836 -1
820 837 -1
820 1059 -1
820 1060 -1
820 1061 -1
820 1075 -1
820 1076 -1
820 1077 -1
820 1091 -1
820 1092 -1
820 1093 -1
821 821 2.6E1
821 822 -1
821 836 -1
821 837 -1
821 838 -1
821 1060 -1
821 1061 -1
821 1062 -1
821 1076 -1
821 1077 -1
821 1078 -1
821 1092 -1
821 1093 -1
821 1094 -1
822 822 2.6E1
822 823 -1
822 837 -1
822 838 -1
822 839 -1
822 1061 -1
822 1062 -1
822 1063 -1
822 1077 -1
822 1078 -1
822 1079 -1
822 1093 -1
822 1094 -1
822 1095 -1
823 823 2.6E1
823 824 -1
823 838 -1
823 839 -1
823 840 -1
823 1062 -1
823 1063 -1
823 1064 -1
823 1078 -1
823 1079 -1
823 1080 -1
823 1094 -1
823 1095 -1
823 1096 -1
824 824 2.6E1
824 825 -1
824 839 -1
824 840 -1
824 841 -1
824 1063 -1
824 1064 -1
824 1065 -1
824 1079 -1
824 1080 -1
824 1081 -1
824 1095 -1
824 1096 -1
824 1097 -1
825 825 2.6E1
825 826 -1
825 840 -1
825 841 -1
825 842 -1
825 1064 -1
825 1065 -1
825 1066 -1
825 1080 -1
825 1081 -1
825 1082 -1
825 1096 -1
825 1097 -1
825 1098 -1
826 826 2.6E1
826 827 -1
826 841 -1
826 842 -1
826 843 -1
826 1065 -1
826 1066 -1
826 1067 -1
826 1081 -1
826 1082 -1
826 1083 -1
826 1097 -1
826 1098 -1
826 1099 -1
827 827 2.6E1
827 828 -1
827 842 -1
827 843 -1
827 844 -1
827 1066 -1
827 1067 -1
827 1068 -1
827 1082 -1
827 1083 -1
827 1084 -1
827 1098 -1
827 1099 -1
827 1100 -1
828 828 2.6E1
828 829 -1
828 843 -1
828 844 -1
828 845 -1
828 1067 -1
828 1068 -1
828 1069 -1
828 1083 -1
828 1084 -1
828 1085 -1
828 1099 -1
828 1100 -1
828 1101 -1
829 829 2.6E1
829 830 -1
829 844 -1
829 845 -1
829 846 -1
829 1068 -1
829 1069 -1
829 1070 -1
829 1084 -1
829 1085 -1
829 1086 -1
829 1100 -1
829 1101 -1
829 1102 -1
830 830 2.6E1
830 831 -1
830 845 -1
830 846 -1
830 847 -1
830 1069 -1
830 1070 -1
830 1071 -1
830 1085 -1
830 1086 -1
830 1087 -1
830 1101 -1
830 1102 -1
830 1103 -1
831 831 2.6E1
831 832 -1
831 846 -1
831 847 -1
831 848 -1
831 1070 -1
831 1071 -1
831 1072 -1
831 1086 -1
831 1087 -1
831 1088 -1
831 1102 -1
831 1103 -1
831 1104 -1
832 832 2.6E1
832 847 -1
832 848 -1
832 1071 -1
832 1072 -1
832 1087 -1
832 1088 -1
832 1103 -1
832 1104 -1
833 833 2.6E1
833 834 -1
833 849 -1
833 850 -1
833 1073 -1
833 1074 -1
833 1089 -1
833 1090 -1
833 1105 -1
833 1106 -1
834 834 2.6E1
834 835 -1
834 849 -1
834 850 -1
834 851 -1
834 1073 -1
834 1074 -1
834 1075 -1
834 1089 -1
834 1090 -1
834 1091 -1
834 1105 -1
834 1106 -1
834 1107 -1
835 835 2.6E1
835 836 -1
835 850 -1
835 851 -1
835 852 -1
835 1074 -1
835 1075 -1
835 1076 -1
835 1090 -1
835 1091 -1
835 1092 -1
835 1106 -1
835 1107 -1
835 1108 -1
836 836 2.6E1
836 837 -1
836 851 -1
836 852 -1
836 853 -1
836 1075 -1
836 1076 -1
836 1077 -1
836 1091 -1
836 1092 -1
836 1093 -1
836 1107 -1
836 1108 -1
836 1109 -1
837 837 2.6E1
837 838 -1
837 852 -1
837 853 -1
837 854 -1
837 1076 -1
837 1077 -1
837 1078 -1
837 1092 -1
837 1093 -1
837 1094 -1
837 1108 -1
837 1109 -1
837 1110 -1
838 838 2.6E1
838 839 -1
838 853 -1
838 854 -1
838 855 -1
838 1077 -1
838 1078 -1
838 1079 -1
838 1093 -1
838 1094 -1
838 1095 -1
838 1109 -1
838 1110 -1
838 1111 -1
839 839 2.6E1
839 840 -1
839 854 -1
839 855 -1
839 856 -1
839 1078 -1
839 1079 -1
839 1080 -1
839 1094 -1
839 1095 -1
839 1096 -1
839 1110 -1
839 1111 -1
839 1112 -1
840 840 2.6E1
840 841 -1
840 855 -1
840 856 -1
840 857 -1
840 1079 -1
840 1080 -1
840 1081 -1
840 1095 -1
840 1096 -1
840 1097 -1
840 1111 -1
840 1112 -1
840 1113 -1
841 841 2.6E1
841 842 -1
841 856 -1
841 857 -1
841 858 -1
841 1080 -1
841 1081 -1
841 1082 -1
841 1096 -1
841 1097 -1
841 1098 -1
841 1112 -1
841 1113 -1
841 1114 -1
842 842 2.6E1
842 843 -1
842 857 -1
842 858 -1
842 859 -1
842 1081 -1
842 1082 -1
842 1083 -1
842 1097 -1
842 1098 -1
842 1099 -1
842 1113 -1
842 1114 -1
842 1115 -1
843 843 2.6E1
843 844 -1
843 858 -1
843 859 -1
843 860 -1
843 1082 -1
843 1083 -1
843 1084 -1
843 1098 -1
843 1099 -1
843 1100 -1
843 1114 -1
843 1115 -1
843 1116 -1
844 844 2.6E1
844 845 -1
844 859 -1
844 860 -1
844 861 -1
844 1083 -1
844 1084 -1
844 1085 -1
844 1099 -1
844 1100 -1
844 1101 -1
844 1115 -1
844 1116 -1
844 1117 -1
845 845 2.6E1
845 846 -1
845 860 -1
845 861 -1
845 862 -1
845 1084 -1
845 1085 -1
845 1086 -1
845 1100 -1
845 1101 -1
845 1102 -1
845 1116 -1
845 1117 -1
845 1118 -1
846 846 2.6E1
846 847 -1
846 861 -1
846 862 -1
846 863 -1
846 1085 -1
846 1086 -1
846 1087 -1
846 1101 -1
846 1102 -1
846 1103 -1
846 1117 -1
846 1118 -1
846 1119 -1
847 847 2.6E1
847 848 -1
847 862 -1
847 863 -1
847 864 -1
847 1086 -1
847 1087 -1
847 1088 -1
847 1102 -1
847 1103 -1
847 1104 -1
847 1118 -1
847 1119 -1
847 1120 -1
848 848 2.6E1
848 863 -1
848 864 -1
848 1087 -1
848 1088 -1
848 1103 -1
848 1104 -1
848 1119 -1
848 1120 -1
849 849 2.6E1
849 850 -1
849 865 -1
849 866 -1
849 1089 -1
849 1090 -1
849 1105 -1
849 1106 -1
849 1121 -1
849 1122 -1
850 850 2.6E1
850 851 -1
850 865 -1
850 866 -1
850 867 -1
850 1089 -1
850 1090 -1
850 1091 -1
850 1105 -1
850 1106 -1
850 1107 -1
850 1121 -1
850 1122 -1
850 1123 -1
851 851 2.6E1
851 852 -1
851 866 -1
851 867 -1
851 868 -1
851 1090 -1
851 1091 -1
851 1092 -1
851 1106 -1
851 1107 -1
851 1108 -1
851 1122 -1
851 1123 -1
851 1124 -1
852 852 2.6E1
852 853 -1
852 867 -1
852 868 -1
852 869 -1
852 1091 -1
852 1092 -1
852 1093 -1
852 1107 -1
852 1108 -1
852 1109 -1
852 1123 -1
852 1124 -1
852 1125 -1
853 853 2.6E1
853 854 -1
853 868 -1
853 869 -1
853 870 -1
853 1092 -1
853 1093 -1
853 1094 -1
853 1108 -1
853 1109 -1
853 1110 -1
853 1124 -1
853 1125 -1
853 1126 -1
854 854 2.6E1
854 855 -1
854 869 -1
854 870 -1
854 871 -1
854 1093 -1
854 1094 -1
854 1095 -1
854 1109 -1
854 1110 -1
854 1111 -1
854 1125 -1
854 1126 -1
854 1127 -1
855 855 2.6E1
855 856 -1
855 870 -1
855 871 -1
855 872 -1
855 1094 -1
855 1095 -1
855 1096 -1
855 1110 -1
855 1111 -1
855 1112 -1
855 1126 -1
855 1127 -1
855 1128 -1
856 856 2.6E1
856 857 -1
856 871 -1
856 872 -1
856 873 -1
856 1095 -1
856 1096 -1
856 1097 -1
856 1111 -1
856 1112 -1
856 1113 -1
856 1127 -1
856 1128 -1
856 1129 -1
857 857 2.6E1
857 858 -1
857 872 -1
857 873 -1
857 874 -1
857 1096 -1
857 1097 -1
857 1098 -1
857 1112 -1
857 1113 -1
857 1114 -1
857 1128 -1
857 1129 -1
857 1130 -1
858 858 2.6E1
858 859 -1
858 873 -1
858 874 -1
858 875 -1
858 1097 -1
858 1098 -1
858 1099 -1
858 1113 -1
858 1114 -1
858 1115 -1
858 1129 -1
858 1130 -1
858 1131 -1
859 859 2.6E1
859 860 -1
859 874 -1
859 875 -1
859 876 -1
859 1098 -1
859 1099 -1
859 1100 -1
859 1114 -1
859 1115 -1
859 1116 -1
859 1130 -1
859 1131 -1
859 1132 -1
860 860 2.6E1
860 861 -1
860 875 -1
860 876 -1
860 877 -1
860 1099 -1
860 1100 -1
860 1101 -1
860 1115 -1
860 1116 -1
860 1117 -1
860 1131 -1
860 1132 -1
860 1133 -1
861 861 2.6E1
861 862 -1
861 876 -1
861 877 -1
861 878 -1
861 1100 -1
861 1101 -1
861 1102 -1
861 1116 -1
861 1117 -1
861 1118 -1
861 1132 -1
861 1133 -1
861 1134 -1
862 862 2.6E1
862 863 -1
862 877 -1
862 878 -1
862 879 -1
862 1101 -1
862 1102 -1
862 1103 -1
862 1117 -1
862 1118 -1
862 1119 -1
862 1133 -1
862 1134 -1
862 1135 -1
863 863 2.6E1
863 864 -1
863 878 -1
863 879 -1
863 880 -1
863 1102 -1
863 1103 -1
863 1104 -1
863 1118 -1
863 1119 -1
863 1120 -1
863 1134 -1
863 1135 -1
863 1136 -1
864 864 2.6E1
864 879 -1
864 880 -1
864 1103 -1
864 1104 -1
864 1119 -1
864 1120 -1
864 1135 -1
864 1136 -1
865 865 2.6E1
865 866 -1
865 881 -1
865 882 -1
865 1105 -1
865 1106 -1
865 1121 -1
865 1122 -1
865 1137 -1
865 1138 -1
866 866 2.6E1
866 867 -1
866 881 -1
866 882 -1
866 883 -1
866 1105 -1
866 1106 -1
866 1107 -1
866 1121 -1
866 1122 -1
866 1123 -1
866 1137 -1
866 1138 -1
866 1139 -1
867 867 2.6E1
867 868 -1
867 882 -1
867 883 -1
867 884 -1
867 1106 -1
867 1107 -1
867 1108 -1
867 1122 -1
867 1123 -1
867 1124 -1
867 1138 -1
867 1139 -1
867 1140 -1
868 868 2.6E1
868 869 -1
868 883 -1
868 884 -1
868 885 -1
868 1107 -1
868 1108 -1
868 1109 -1
868 1123 -1
868 1124 -1
868 1125 -1
868 1139 -1
868 1140 -1
868 1141 -1
869 869 2.6E1
869 870 -1
869 884 -1
869 885 -1
869 886 -1
869 1108 -1
869 1109 -1
869 1110 -1
869 1124 -1
869 1125 -1
869 1126 -1
869 1140 -1
869 1141 -1
869 1142 -1
870 870 2.6E1
870 871 -1
870 885 -1
870 886 -1
870 887 -1
870 1109 -1
870 1110 -1
870 1111 -1
870 1125 -1
870 1126 -1
870 1127 -1
870 1141 -1
870 1142 -1
870 1143 -1
871 871 2.6E1
871 872 -1
871 886 -1
871 887 -1
871 888 -1
871 1110 -1
871 1111 -1
871 1112 -1
871 1126 -1
871 1127 -1
871 1128 -1
871 1142 -1
871 1143 -1
871 1144 -1
872 872 2.6E1
872 873 -1
872 887 -1
872 888 -1
872 889 -1
872 1111 -1
872 1112 -1
872 1113 -1
872 1127 -1
872 1128 -1
872 1129 -1
872 1143 -1
872 1144 -1
872 1145 -1
873 873 2.6E1
873 874 -1
873 888 -1
873 889 -1
873 890 -1
873 1112 -1
873 1113 -1
873 1114 -1
873 1128 -1
873 1129 -1
873 1130 -1
873 1144 -1
873 1145 -1
873 1146 -1
874 874 2.6E1
874 875 -1
874 889 -1
874 890 -1
874 891 -1
874 1113 -1
874 1114 -1
874 1115 -1
874 1129 -1
874 1130 -1
874 1131 -1
874 1145 -1
874 1146 -1
874 1147 -1
875 875 2.6E1
875 876 -1
875 890 -1
875 891 -1
875 892 -1
875 1114 -1
875 1115 -1
875 1116 -1
875 1130 -1
875 1131 -1
875 1132 -1
875 1146 -1
875 1147 -1
875 1148 -1
876 876 2.6E1
876 877 -1
876 891 -1
876 892 -1
876 893 -1
876 1115 -1
876 1116 -1
876 1117 -1
876 1131 -1
876 1132 -1
876 1133 -1
876 1147 -1
876 1148 -1
876 1149 -1
877 877 2.6E1
877 878 -1
877 892 -1
877 893 -1
877 894 -1
877 1116 -1
877 1117 -1
877 1118 -1
877 1132 -1
877 1133 -1
877 1134 -1
877 1148 -1
877 1149 -1
877 1150 -1
878 878 2.6E1
878 879 -1
878 893 -1
878 894 -1
878 895 -1
878 1117 -1
878 1118 -1
878 1119 -1
878 1133 -1
878 1134 -1
878 1135 -1
878 1149 -1
878 1150 -1
878 1151 -1
879 879 2.6E1
879 880 -1
879 894 -1
879 895 -1
879 896 -1
879 1118 -1
879 1119 -1
879 1120 -1
879 1134 -1
879 1135 -1
879 1136 -1
879 1150 -1
879 1151 -1
879 1152 -1
880 880 2.6E1
880 895 -1
880 896 -1
880 1119 -1
880 1120 -1
880 1135 -1
880 1136 -1
880 1151 -1
880 1152 -1
881 881 2.6E1
881 882 -1
881 897 -1
881 898 -1
881 1121 -1
881 1122 -1
881 1137 -1
881 1138 -1
881 1153 -1
881 1154 -1
882 882 2.6E1
882 883 -1
882 897 -1
882 898 -1
882 899 -1
882 1121 -1
882 1122 -1
882 1123 -1
882 1137 -1
882 1138 -1
882 1139 -1
882 1153 -1
882 1154 -1
882 1155 -1
883 883 2.6E1
883 884 -1
883 898 -1
883 899 -1
883 900 -1
883 1122 -1
883 1123 -1
883 1124 -1
883 1138 -1
883 1139 -1
883 1140 -1
883 1154 -1
883 1155 -1
883 1156 -1
884 884 2.6E1
884 885 -1
884 899 -1
884 900 -1
884 901 -1
884 1123 -1
884 1124 -1
884 1125 -1
884 1139 -1
884 1140 -1
884 1141 -1
884 1155 -1
884 1156 -1
884 1157 -1
885 885 2.6E1
885 886 -1
885 900 -1
885 901 -1
885 902 -1
885 1124 -1
885 1125 -1
885 1126 -1
885 1140 -1
885 1141 -1
885 1142 -1
885 1156 -1
885 1157 -1
885 1158 -1
886 886 2.6E1
886 887 -1
886 901 -1
886 902 -1
886 903 -1
886 1125 -1
886 1126 -1
886 1127 -1
886 1141 -1
886 1142 -1
886 1143 -1
886 1157 -1
886 1158 -1
886 1159 -1
887 887 2.6E1
887 888 -1
887 902 -1
887 903 -1
887 904 -1
887 1126 -1
887 1127 -1
887 1128 -1
887 1142 -1
887 1143 -1
887 1144 -1
887 1158 -1
887 1159 -1
887 1160 -1
888 888 2.6E1
888 889 -1
888 903 -1
888 904 -1
888 905 -1
888 1127 -1
888 1128 -1
888 1129 -1
888 1143 -1
888 1144 -1
888 1145 -1
888 1159 -1
888 1160 -1
888 1161 -1
889 889 2.6E1
889 890 -1
889 904 -1
889 905 -1
889 906 -1
889 1128 -1
889 1129 -1
889 1130 -1
889 1144 -1
889 1145 -1
889 1146 -1
889 1160 -1
889 1161 -1
889 1162 -1
890 890 2.6E1
890 891 -1
890 905 -1
890 906 -1
890 907 -1
890 1129 -1
890 1130 -1
890 1131 -1
890 1145 -1
890 1146 -1
890 1147 -1
890 1161 -1
890 1162 -1
890 1163 -1
891 891 2.6E1
891 892 -1
891 906 -1
891 907 -1
891 908 -1
891 1130 -1
891 1131 -1
891 1132 -1
891 1146 -1
891 1147 -1
891 1148 -1
891 1162 -1
891 1163 -1
891 1164 -1
892 892 2.6E1
892 893 -1
892 907 -1
892 908 -1
892 909 -1
892 1131 -1
892 1132 -1
892 1133 -1
892 1147 -1
892 1148 -1
892 1149 -1
892 1163 -1
892 1164 -1
892 1165 -1
893 893 2.6E1
893 894 -1
893 908 -1
893 909 -1
893 910 -1
893 1132 -1
893 1133 -1
893 1134 -1
893 1148 -1
893 1149 -1
893 1150 -1
893 1164 -1
893 1165 -1
893 1166 -1
894 894 2.6E1
894 895 -1
894 909 -1
894 910 -1
894 911 -1
894 1133 -1
894 1134 -1
894 1135 -1
894 1149 -1
894 1150 -1
894 1151 -1
894 1165 -1
894 1166 -1
894 1167 -1
895 895 2.6E1
895 896 -1
895 910 -1
895 911 -1
895 912 -1
895 1134 -1
895 1135 -1
895 1136 -1
895 1150 -1
895 1151 -1
895 1152 -1
895 1166 -1
895 1167 -1
895 1168 -1
896 896 2.6E1
896 911 -1
896 912 -1
896 1135 -1
896 1136 -1
896 1151 -1
896 1152 -1
896 1167 -1
896 1168 -1
897 897 2.6E1
897 898 -1
897 913 -1
897 914 -1
897 1137 -1
897 1138 -1
897 1153 -1
897 1154 -1
897 1169 -1
897 1170 -1
898 898 2.6E1
898 899 -1
898 913 -1
898 914 -1
898 915 -1
898 1137 -1
898 1138 -1
898 1139 -1
898 1153 -1
898 1154 -1
898 1155 -1
898 1169 -1
898 1170 -1
898 1171 -1
899 899 2.6E1
899 900 -1
899 914 -1
899 915 -1
899 916 -1
899 1138 -1
899 1139 -1
899 1140 -1
899 1154 -1
899 1155 -1
899 1156 -1
899 1170 -1
899 1171 -1
899 1172 -1
900 900 2.6E1
900 901 -1
900 915 -1
900 916 -1
900 917 -1
900 1139 -1
900 1140 -1
900 1141 -1
900 1155 -1
900 1156 -1
900 1157 -1
900 1171 -1
900 1172 -1
900 1173 -1
901 901 2.6E1
901 902 -1
901 916 -1
901 917 -1
901 918 -1
901 1140 -1
901 1141 -1
901 1142 -1
901 1156 -1
901 1157 -1
901 1158 -1
901 1172 -1
901 1173 -1
901 1174 -1
902 902 2.6E1
902 903 -1
902 917 -1
902 918 -1
902 919 -1
902 1141 -1
902 1142 -1
902 1143 -1
902 1157 -1
902 1158 -1
902 1159 -1
902 1173 -1
902 1174 -1
902 1175 -1
903 903 2.6E1
903 904 -1
903 918 -1
903 919 -1
903 920 -1
903 1142 -1
903 1143 -1
903 1144 -1
903 1158 -1
903 1159 -1
903 1160 -1
903 1174 -1
903 1175 -1
903 1176 -1
904 904 2.6E1
904 905 -1
904 919 -1
904 920 -1
904 921 -1
904 1143 -1
904 1144 -1
904 1145 -1
904 1159 -1
904 1160 -1
904 1161 -1
904 1175 -1
904 1176 -1
904 1177 -1
905 905 2.6E1
905 906 -1
905 920 -1
905 921 -1
905 922 -1
905 1144 -1
905 1145 -1
905 1146 -1
905 1160 -1
905 1161 -1
905 1162 -1
905 1176 -1
905 1177 -1
905 1178 -1
906 906 2.6E1
906 907 -1
906 921 -1
906 922 -1
906 923 -1
906 1145 -1
906 1146 -1
906 1147 -1
906 1161 -1
906 1162 -1
906 1163 -1
906 1177 -1
906 1178 -1
906 1179 -1
907 907 2.6E1
907 908 -1
907 922 -1
907 923 -1
907 924 -1
907 1146 -1
907 1147 -1
907 1148 -1
907 1162 -1
907 1163 -1
907 1164 -1
907 1178 -1
907 1179 -1
907 1180 -1
908 908 2.6E1
908 909 -1
908 923 -1
908 924 -1
908 925 -1
908 1147 -1
908 1148 -1
908 1149 -1
908 1163 -1
908 1164 -1
908 1165 -1
908 1179 -1
908 1180 -1
908 1181 -1
909 909 2.6E1
909 910 -1
909 924 -1
909 925 -1
909 926 -1
909 1148 -1
909 1149 -1
909 1150 -1
909 1164 -1
909 1165 -1
909 1166 -1
909 1180 -1
909 1181 -1
909 1182 -1
910 910 2.6E1
910 911 -1
910 925 -1
910 926 -1
910 927 -1
910 1149 -1
910 1150 -1
910 1151 -1
910 1165 -1
910 1166 -1
910 1167 -1
910 1181 -1
910 1182 -1
910 1183 -1
911 911 2.6E1
911 912 -1
911 926 -1
911 927 -1
911 928 -1
911 1150 -1
911 1151 -1
911 1152 -1
911 1166 -1
911 1167 -1
911 1168 -1
911 1182 -1
911 1183 -1
911 1184 -1
912 912 2.6E1
912 927 -1
912 928 -1
912 1151 -1
912 1152 -1
912 1167 -1
912 1168 -1
912 1183 -1
912 1184 -1
913 913 2.6E1
913 914 -1
913 929 -1
913 930 -1
913 1153 -1
913 1154 -1
913 1169 -1
913 1170 -1
913 1185 -1
913 1186 -1
914 914 2.6E1
914 915 -1
914 929 -1
914 930 -1
914 931 -1
914 1153 -1
914 1154 -1
914 1155 -1
914 1169 -1
914 1170 -1
914 1171 -1
914 1185 -1
914 1186 -1
914 1187 -1
915 915 2.6E1
915 916 -1
915 930 -1
915 931 -1
915 932 -1
915 1154 -1
915 1155 -1
915 1156 -1
915 1170 -1
915 1171 -1
915 1172 -1
915 1186 -1
915 1187 -1
915 1188 -1
916 916 2.6E1
916 917 -1
916 931 -1
916 932 -1
916 933 -1
916 1155 -1
916 1156 -1
916 1157 -1
916 1171 -1
916 1172 -1
916 1173 -1
916 1187 -1
916 1188 -1
916 1189 -1
917 917 2.6E1
917 918 -1
917 932 -1
917 933 -1
917 934 -1
917 1156 -1
917 1157 -1
917 1158 -1
917 1172 -1
917 1173 -1
917 1174 -1
917 1188 -1
917 1189 -1
917 1190 -1
918 918 2.6E1
918 919 -1
918 933 -1
918 934 -1
918 935 -1
918 1157 -1
918 1158 -1
918 1159 -1
918 1173 -1
918 1174 -1
918 1175 -1
918 1189 -1
918 1190 -1
918 1191 -1
919 919 2.6E1
919 920 -1
919 934 -1
919 935 -1
919 936 -1
919 1158 -1
919 1159 -1
919 1160 -1
919 1174 -1
919 1175 -1
919 1176 -1
919 1190 -1
919 1191 -1
919 1192 -1
920 920 2.6E1
920 921 -1
920 935 -1
920 936 -1
920 937 -1
920 1159 -1
920 1160 -1
920 1161 -1
920 1175 -1
920 1176 -1
920 1177 -1
920 1191 -1
920 1192 -1
920 1193 -1
921 921 2.6E1
921 922 -1
921 936 -1
921 937 -1
921 938 -1
921 1160 -1
921 1161 -1
921 1162 -1
921 1176 -1
921 1177 -1
921 1178 -1
921 1192 -1
921 1193 -1
921 1194 -1
922 922 2.6E1
922 923 -1
922 937 -1
922 938 -1
922 939 -1
922 1161 -1
922 1162 -1
922 1163 -1
922 1177 -1
922 1178 -1
922 1179 -1
922 1193 -1
922 1194 -1
922 1195 -1
923 923 2.6E1
923 924 -1
923 938 -1
923 939 -1
923 940 -1
923 1162 -1
923 1163 -1
923 1164 -1
923 1178 -1
923 1179 -1
923 1180 -1
923 1194 -1
923 1195 -1
923 1196 -1
924 924 2.6E1
924 925 -1
924 939 -1
924 940 -1
924 941 -1
924 1163 -1
924 1164 -1
924 1165 -1
924 1179 -1
924 1180 -1
924 1181 -1
924 1195 -1
924 1196 -1
924 1197 -1
925 925 2.6E1
925 926 -1
925 940 -1
925 941 -1
925 942 -1
925 1164 -1
925 1165 -1
925 1166 -1
925 1180 -1
925 1181 -1
925 1182 -1
925 1196 -1
925 1197 -1
925 1198 -1
926 926 2.6E1
926 927 -1
926 941 -1
926 942 -1
926 943 -1
926 1165 -1
926 1166 -1
926 1167 -1
926 1181 -1
926 1182 -1
926 1183 -1
926 1197 -1
926 1198 -1
926 1199 -1
927 927 2.6E1
927 928 -1
927 942 -1
927 943 -1
927 944 -1
927 1166 -1
927 1167 -1
927 1168 -1
927 1182 -1
927 1183 -1
927 1184 -1
927 1198 -1
927 1199 -1
927 1200 -1
928 928 2.6E1
928 943 -1
928 944 -1
928 1167 -1
928 1168 -1
928 1183 -1
928 1184 -1
928 1199 -1
928 1200 -1
929 929 2.6E1
929 930 -1
929 945 -1
929 946 -1
929 1169 -1
929 1170 -1
929 1185 -1
929 1186 -1
929 1201 -1
929 1202 -1
930 930 2.6E1
930 931 -1
930 945 -1
930 946 -1
930 947 -1
930 1169 -1
930 1170 -1
930 1171 -1
930 1185 -1
930 1186 -1
930 1187 -1
930 1201 -1
930 1202 -1
930 1203 -1
931 931 2.6E1
931 932 -1
931 946 -1
931 947 -1
931 948 -1
931 1170 -1
931 1171 -1
931 1172 -1
931 1186 -1
931 1187 -1
931 1188 -1
931 1202 -1
931 1203 -1
931 1204 -1
932 932 2.6E1
932 933 -1
932 947 -1
932 948 -1
932 949 -1
932 1171 -1
932 1172 -1
932 1173 -1
932 1187 -1
932 1188 -1
932 1189 -1
932 1203 -1
932 1204 -1
932 1205 -1
933 933 2.6E1
933 934 -1
933 948 -1
933 949 -1
933 950 -1
933 1172 -1
933 1173 -1
933 1174 -1
933 1188 -1
933 1189 -1
933 1190 -1
933 1204 -1
933 1205 -1
933 1206 -1
934 934 2.6E1
934 935 -1
934 949 -1
934 950 -1
934 951 -1
934 1173 -1
934 1174 -1
934 1175 -1
934 1189 -1
934 1190 -1
934 1191 -1
934 1205 -1
934 1206 -1
934 1207 -1
935 935 2.6E1
935 936 -1
935 950 -1
935 951 -1
935 952 -1
935 1174 -1
935 1175 -1
935 1176 -1
935 1190 -1
935 1191 -1
935 1192 -1
935 1206 -1
935 1207 -1
935 1208 -1
936 936 2.6E1
936 937 -1
936 951 -1
936 952 -1
936 953 -1
936 1175 -1
936 1176 -1
936 1177 -1
936 1191 -1
936 1192 -1
936 1193 -1
936 1207 -1
936 1208 -1
936 1209 -1
937 937 2.6E1
937 938 -1
937 952 -1
937 953 -1
937 954 -1
937 1176 -1
937 1177 -1
937 1178 -1
937 1192 -1
937 1193 -1
937 1194 -1
937 1208 -1
937 1209 -1
937 1210 -1
938 938 2.6E1
938 939 -1
938 953 -1
938 954 -1
938 955 -1
938 1177 -1
938 1178 -1
938 1179 -1
938 1193 -1
938 1194 -1
938 1195 -1
938 1209 -1
938 1210 -1
938 1211 -1
939 939 2.6E1
939 940 -1
939 954 -1
939 955 -1
939 956 -1
939 1178 -1
939 1179 -1
939 1180 -1
939 1194 -1
939 1195 -1
939 1196 -1
939 1210 -1
939 1211 -1
939 1212 -1
940 940 2.6E1
940 941 -1
940 955 -1
940 956 -1
940 957 -1
940 1179 -1
940 1180 -1
940 1181 -1
940 1195 -1
940 1196 -1
940 1197 -1
940 1211 -1
940 1212 -1
940 1213 -1
941 941 2.6E1
941 942 -1
941 956 -1
941 957 -1
941 958 -1
941 1180 -1
941 1181 -1
941 1182 -1
941 1196 -1
941 1197 -1
941 1198 -1
941 1212 -1
941 1213 -1
941 1214 -1
942 942 2.6E1
942 943 -1
942 957 -1
942 958 -1
942 959 -1
942 1181 -1
942 1182 -1
942 1183 -1
942 1197 -1
942 1198 -1
942 1199 -1
942 1213 -1
942 1214 -1
942 1215 -1
943 943 2.6E1
943 944 -1
943 958 -1
943 959 -1
943 960 -1
943 1182 -1
943 1183 -1
943 1184 -1
943 1198 -1
943 1199 -1
943 1200 -1
943 1214 -1
943 1215 -1
943 1216 -1
944 944 2.6E1
944 959 -1
944 960 -1
944 1183 -1
944 1184 -1
944 1199 -1
944 1200 -1
944 1215 -1
944 1216 -1
945 945 2.6E1
945 946 -1
945 961 -1
945 962 -1
945 1185 -1
945 1186 -1
945 1201 -1
945 1202 -1
945 1217 -1
945 1218 -1
946 946 2.6E1
946 947 -1
946 961 -1
946 962 -1
946 963 -1
946 1185 -1
946 1186 -1
946 1187 -1
946 1201 -1
946 1202 -1
946 1203 -1
946 1217 -1
946 1218 -1
946 1219 -1
947 947 2.6E1
947 948 -1
947 962 -1
947 963 -1
947 964 -1
947 1186 -1
947 1187 -1
947 1188 -1
947 1202 -1
947 1203 -1
947 1204 -1
947 1218 -1
947 1219 -1
947 1220 -1
948 948 2.6E1
948 949 -1
948 963 -1
948 964 -1
948 965 -1
948 1187 -1
948 1188 -1
948 1189 -1
948 1203 -1
948 1204 -1
948 1205 -1
948 1219 -1
948 1220 -1
948 1221 -1
949 949 2.6E1
949 950 -1
949 964 -1
949 965 -1
949 966 -1
949 1188 -1
949 1189 -1
949 1190 -1
949 1204 -1
949 1205 -1
949 1206 -1
949 1220 -1
949 1221 -1
949 1222 -1
950 950 2.6E1
950 951 -1
950 965 -1
950 966 -1
950 967 -1
950 1189 -1
950 1190 -1
950 1191 -1
950 1205 -1
950 1206 -1
950 1207 -1
950 1221 -1
950 1222 -1
950 1223 -1
951 951 2.6E1
951 952 -1
951 966 -1
951 967 -1
951 968 -1
951 1190 -1
951 1191 -1
951 1192 -1
951 1206 -1
951 1207 -1
951 1208 -1
951 1222 -1
951 1223 -1
951 1224 -1
952 952 2.6E1
952 953 -1
952 967 -1
952 968 -1
952 969 -1
952 1191 -1
952 1192 -1
952 1193 -1
952 1207 -1
952 1208 -1
952 1209 -1
952 1223 -1
952 1224 -1
952 1225 -1
953 953 2.6E1
953 954 -1
953 968 -1
953 969 -1
953 970 -1
953 1192 -1
953 1193 -1
953 1194 -1
953 1208 -1
953 1209 -1
953 1210 -1
953 1224 -1
953 1225 -1
953 1226 -1
954 954 2.6E1
954 955 -1
954 969 -1
954 970 -1
954 971 -1
954 1193 -1
954 1194 -1
954 1195 -1
954 1209 -1
954 1210 -1
954 1211 -1
954 1225 -1
954 1226 -1
954 1227 -1
955 955 2.6E1
955 956 -1
955 970 -1
955 971 -1
955 972 -1
955 1194 -1
955 1195 -1
955 1196 -1
955 1210 -1
955 1211 -1
955 1212 -1
955 1226 -1
955 1227 -1
955 1228 -1
956 956 2.6E1
956 957 -1
956 971 -1
956 972 -1
956 973 -1
956 1195 -1
956 1196 -1
956 1197 -1
956 1211 -1
956 1212 -1
956 1213 -1
956 1227 -1
956 1228 -1
956 1229 -1
957 957 2.6E1
957 958 -1
957 972 -1
957 973 -1
957 974 -1
957 1196 -1
957 1197 -1
957 1198 -1
957 1212 -1
957 1213 -1
957 1214 -1
957 1228 -1
957 1229 -1
957 1230 -1
958 958 2.6E1
958 959 -1
958 973 -1
958 974 -1
958 975 -1
958 1197 -1
958 1198 -1
958 1199 -1
958 1213 -1
958 1214 -1
958 1215 -1
958 1229 -1
958 1230 -1
958 1231 -1
959 959 2.6E1
959 960 -1
959 974 -1
959 975 -1
959 976 -1
959 1198 -1
959 1199 -1
959 1200 -1
959 1214 -1
959 1215 -1
959 1216 -1
959 1230 -1
959 1231 -1
959 1232 -1
960 960 2.6E1
960 975 -1
960 976 -1
960 1199 -1
960 1200 -1
960 1215 -1
960 1216 -1
960 1231 -1
960 1232 -1
961 961 2.6E1
961 962 -1
961 977 -1
961 978 -1
961 1201 -1
961 1202 -1
961 1217 -1
961 1218 -1
961 1233 -1
961 1234 -1
962 962 2.6E1
962 963 -1
962 977 -1
962 978 -1
962 979 -1
962 1201 -1
962 1202 -1
962 1203 -1
962 1217 -1
962 1218 -1
962 1219 -1
962 1233 -1
962 1234 -1
962 1235 -1
963 963 2.6E1
963 964 -1
963 978 -1
963 979 -1
963 980 -1
963 1202 -1
963 1203 -1
963 1204 -1
963 1218 -1
963 1219 -1
963 1220 -1
963 1234 -1
963 1235 -1
963 1236 -1
964 964 2.6E1
964 965 -1
964 979 -1
964 980 -1
964 981 -1
964 1203 -1
964 1204 -1
964 1205 -1
964 1219 -1
964 1220 -1
964 1221 -1
964 1235 -1
964 1236 -1
964 1237 -1
965 965 2.6E1
965 966 -1
965 980 -1
965 981 -1
965 982 -1
965 1204 -1
965 1205 -1
965 1206 -1
965 1220 -1
965 1221 -1
965 1222 -1
965 1236 -1
965 1237 -1
965 1238 -1
966 966 2.6E1
966 967 -1
966 981 -1
966 982 -1
966 983 -1
966 1205 -1
966 1206 -1
966 1207 -1
966 1221 -1
966 1222 -1
966 1223 -1
966 1237 -1
966 1238 -1
966 1239 -1
967 967 2.6E1
967 968 -1
967 982 -1
967 983 -1
967 984 -1
967 1206 -1
967 1207 -1
967 1208 -1
967 1222 -1
967 1223 -1
967 1224 -1
967 1238 -1
967 1239 -1
967 1240 -1
968 968 2.6E1
968 969 -1
968 983 -1
968 984 -1
968 985 -1
968 1207 -1
968 1208 -1
968 1209 -1
968 1223 -1
968 1224 -1
968 1225 -1
968 1239 -1
968 1240 -1
968 1241 -1
969 969 2.6E1
969 970 -1
969 984 -1
969 985 -1
969 986 -1
969 1208 -1
969 1209 -1
969 1210 -1
969 1224 -1
969 1225 -1
969 1226 -1
969 1240 -1
969 1241 -1
969 1242 -1
970 970 2.6E1
970 971 -1
970 985 -1
970 986 -1
970 987 -1
970 1209 -1
970 1210 -1
970 1211 -1
970 1225 -1
970 1226 -1
970 1227 -1
970 1241 -1
970 1242 -1
970 1243 -1
971 971 2.6E1
971 972 -1
971 986 -1
971 987 -1
971 988 -1
971 1210 -1
971 1211 -1
971 1212 -1
971 1226 -1
971 1227 -1
971 1228 -1
971 1242 -1
971 1243 -1
971 1244 -1
972 972 2.6E1
972 973 -1
972 987 -1
972 988 -1
972 989 -1
972 1211 -1
972 1212 -1
972 1213 -1
972 1227 -1
972 1228 -1
972 1229 -1
972 1243 -1
972 1244 -1
972 1245 -1
973 973 2.6E1
973 974 -1
973 988 -1
973 989 -1
973 990 -1
973 1212 -1
973 1213 -1
973 1214 -1
973 1228 -1
973 1229 -1
973 1230 -1
973 1244 -1
973 1245 -1
973 1246 -1
974 974 2.6E1
974 975 -1
974 989 -1
974 990 -1
974 991 -1
974 1213 -1
974 1214 -1
974 1215 -1
974 1229 -1
974 1230 -1
974 1231 -1
974 1245 -1
974 1246 -1
974 1247 -1
975 975 2.6E1
975 976 -1
975 990 -1
975 991 -1
975 992 -1
975 1214 -1
975 1215 -1
975 1216 -1
975 1230 -1
975 1231 -1
975 1232 -1
975 1246 -1
975 1247 -1
975 1248 -1
976 976 2.6E1
976 991 -1
976 992 -1
976 1215 -1
976 1216 -1
976 1231 -1
976 1232 -1
976 1247 -1
976 1248 -1
977 977 2.6E1
977 978 -1
977 993 -1
977 994 -1
977 1217 -1
977 1218 -1
977 1233 -1
977 1234 -1
977 1249 -1
977 1250 -1
978 978 2.6E1
978 979 -1
978 993 -1
978 994 -1
978 995 -1
978 1217 -1
978 1218 -1
978 1219 -1
978 1233 -1
978 1234 -1
978 1235 -1
978 1249 -1
978 1250 -1
978 1251 -1
979 979 2.6E1
979 980 -1
979 994 -1
979 995 -1
979 996 -1
979 1218 -1
979 1219 -1
979 1220 -1
979 1234 -1
979 1235 -1
979 1236 -1
979 1250 -1
979 1251 -1
979 1252 -1
980 980 2.6E1
980 981 -1
980 995 -1
980 996 -1
980 997 -1
980 1219 -1
980 1220 -1
980 1221 -1
980 1235 -1
980 1236 -1
980 1237 -1
980 1251 -1
980 1252 -1
980 1253 -1
981 981 2.6E1
981 982 -1
981 996 -1
981 997 -1
981 998 -1
981 1220 -1
981 1221 -1
981 1222 -1
981 1236 -1
981 1237 -1
981 1238 -1
981 1252 -1
981 1253 -1
981 1254 -1
982 982 2.6E1
982 983 -1
982 997 -1
982 998 -1
982 999 -1
982 1221 -1
982 1222 -1
982 1223 -1
982 1237 -1
982 1238 -1
982 1239 -1
982 1253 -1
982 1254 -1
982 1255 -1
983 983 2.6E1
983 984 -1
983 998 -1
983 999 -1
983 1000 -1
983 1222 -1
983 1223 -1
983 1224 -1
983 1238 -1
983 1239 -1
983 1240 -1
983 1254 -1
983 1255 -1
983 1256 -1
984 984 2.6E1
984 985 -1
984 999 -1
984 1000 -1
984 1001 -1
984 1223 -1
984 1224 -1
984 1225 -1
984 1239 -1
984 1240 -1
984 1241 -1
984 1255 -1
984 1256 -1
984 1257 -1
985 985 2.6E1
985 986 -1
985 1000 -1
985 1001 -1
985 1002 -1
985 1224 -1
985 1225 -1
985 1226 -1
985 1240 -1
985 1241 -1
985 1242 -1
985 1256 -1
985 1257 -1
985 1258 -1
986 986 2.6E1
986 987 -1
986 1001 -1
986 1002 -1
986 1003 -1
986 1225 -1
986 1226 -1
986 1227 -1
986 1241 -1
986 1242 -1
986 1243 -1
986 1257 -1
986 1258 -1
986 1259 -1
987 987 2.6E1
987 988 -1
987 1002 -1
987 1003 -1
987 1004 -1
987 1226 -1
987 1227 -1
987 1228 -1
987 1242 -1
987 1243 -1
987 1244 -1
987 1258 -1
987 1259 -1
987 1260 -1
988 988 2.6E1
988 989 -1
988 1003 -1
988 1004 -1
988 1005 -1
988 1227 -1
988 1228 -1
988 1229 -1
988 1243 -1
988 1244 -1
988 1245 -1
988 1259 -1
988 1260 -1
988 1261 -1
989 989 2.6E1
989 990 -1
989 1004 -1
989 1005 -1
989 1006 -1
989 1228 -1
989 1229 -1
989 1230 -1
989 1244 -1
989 1245 -1
989 1246 -1
989 1260 -1
989 1261 -1
989 1262 -1
990 990 2.6E1
990 991 -1
990 1005 -1
990 1006 -1
990 1007 -1
990 1229 -1
990 1230 -1
990 1231 -1
990 1245 -1
990 1246 -1
990 1247 -1
990 1261 -1
990 1262 -1
990 1263 -1
991 991 2.6E1
991 992 -1
991 1006 -1
991 1007 -1
991 1008 -1
991 1230 -1
991 1231 -1
991 1232 -1
991 1246 -1
991 1247 -1
991 1248 -1
991 1262 -1
991 1263 -1
991 1264 -1
992 992 2.6E1
992 1007 -1
992 1008 -1
992 1231 -1
992 1232 -1
992 1247 -1
992 1248 -1
992 1263 -1
992 1264 -1
993 993 2.6E1
993 994 -1
993 1009 -1
993 1010 -1
993 1233 -1
993 1234 -1
993 1249 -1
993 1250 -1
993 1265 -1
993 1266 -1
994 994 2.6E1
994 995 -1
994 1009 -1
994 1010 -1
994 1011 -1
994 1233 -1
994 1234 -1
994 1235 -1
994 1249 -1
994 1250 -1
994 1251 -1
994 1265 -1
994 1266 -1
994 1267 -1
995 995 2.6E1
995 996 -1
995 1010 -1
995 1011 -1
995 1012 -1
995 1234 -1
995 1235 -1
995 1236 -1
995 1250 -1
995 1251 -1
995 1252 -1
995 1266 -1
995 1267 -1
995 1268 -1
996 996 2.6E1
996 997 -1
996 1011 -1
996 1012 -1
996 1013 -1
996 1235 -1
996 1236 -1
996 1237 -1
996 1251 -1
996 1252 -1
996 1253 -1
996 1267 -1
996 1268 -1
996 1269 -1
997 997 2.6E1
997 998 -1
997 1012 -1
997 1013 -1
997 1014 -1
997 1236 -1
997 1237 -1
997 1238 -1
997 1252 -1
997 1253 -1
997 1254 -1
997 1268 -1
997 1269 -1
997 1270 -1
998 998 2.6E1
998 999 -1
998 1013 -1
998 1014 -1
998 1015 -1
998 1237 -1
998 1238 -1
998 1239 -1
998 1253 -1
998 1254 -1
998 1255 -1
998 1269 -1
998 1270 -1
998 1271 -1
999 999 2.6E1
999 1000 -1
999 1014 -1
999 1015 -1
999 1016 -1
999 1238 -1
999 1239 -1
999 1240 -1
999 1254 -1
999 1255 -1
999 1256 -1
999 1270 -1
999 1271 -1
999 1272 -1
1000 1000 2.6E1
1000 1001 -1
1000 1015 -1
1000 1016 -1
1000 1017 -1
1000 1239 -1
1000 1240 -1
1000 1241 -1
1000 1255 -1
1000 1256 -1
1000 1257 -1
1000 1271 -1
1000 1272 -1
1000 1273 -1
1001 1001 2.6E1
1001 1002 -1
1001 1016 -1
1001 1017 -1
1001 1018 -1
1001 1240 -1
1001 1241 -1
1001 1242 -1
1001 1256 -1
1001 1257 -1
1001 1258 -1
1001 1272 -1
1001 1273 -1
1001 1274 -1
1002 1002 2.6E1
1002 1003 -1
1002 1017 -1
1002 1018 -1
1002 1019 -1
1002 1241 -1
1002 1242 -1
1002 1243 -1
1002 1257 -1
1002 1258 -1
1002 1259 -1
1002 1273 -1
1002 1274 -1
1002 1275 -1
1003 1003 2.6E1
1003 1004 -1
1003 1018 -1
1003 1019 -1
1003 1020 -1
1003 1242 -1
1003 1243 -1
1003 1244 -1
1003 1258 -1
1003 1259 -1
1003 1260 -1
1003 1274 -1
1003 1275 -1
1003 1276 -1
1004 1004 2.6E1
1004 1005 -1
1004 1019 -1
1004 1020 -1
1004 1021 -1
1004 1243 -1
1004 1244 -1
1004 1245 -1
1004 1259 -1
1004 1260 -1
1004 1261 -1
1004 1275 -1
1004 1276 -1
1004 1277 -1
1005 1005 2.6E1
1005 1006 -1
1005 1020 -1
1005 1021 -1
1005 1022 -1
1005 1244 -1
1005 1245 -1
1005 1246 -1
1005 1260 -1
1005 1261 -1
1005 1262 -1
1005 1276 -1
1005 1277 -1
1005 1278 -1
1006 1006 2.6E1
1006 1007 -1
1006 1021 -1
1006 1022 -1
1006 1023 -1
1006 1245 -1
1006 1246 -1
1006 1247 -1
1006 1261 -1
1006 1262 -1
1006 1263 -1
1006 1277 -1
1006 1278 -1
1006 1279 -1
1007 1007 2.6E1
1007 1008 -1
1007 1022 -1
1007 1023 -1
1007 1024 -1
1007 1246 -1
1007 1247 -1
1007 1248 -1
1007 1262 -1
1007 1263 -1
1007 1264 -1
1007 1278 -1
1007 1279 -1
1007 1280 -1
1008 1008 2.6E1
1008 1023 -1
1008 1024 -1
1008 1247 -1
1008 1248 -1
1008 1263 -1
1008 1264 -1
1008 1279 -1
1008 1280 -1
1009 1009 2.6E1
1009 1010 -1
1009 1249 -1
1009 1250 -1
1009 1265 -1
1009 1266 -1
1010 1010 2.6E1
1010 1011 -1
1010 1249 -1
1010 1250 -1
1010 1251 -1
1010 1265 -1
1010 1266 -1
1010 1267 -1
1011 1011 2.6E1
1011 1012 -1
1011 1250 -1
1011 1251 -1
1011 1252 -1
1011 1266 -1
1011 1267 -1
1011 1268 -1
1012 1012 2.6E1
1012 1013 -1
1012 1251 -1
1012 1252 -1
1012 1253 -1
1012 1267 -1
1012 1268 -1
1012 1269 -1
1013 1013 2.6E1
1013 1014 -1
1013 1252 -1
1013 1253 -1
1013 1254 -1
1013 1268 -1
1013 1269 -1
1013 1270 -1
1014 1014 2.6E1
1014 1015 -1
1014 1253 -1
1014 1254 -1
1014 1255 -1
1014 1269 -1
1014 1270 -1
1014 1271 -1
1015 1015 2.6E1
1015 1016 -1
1015 1254 -1
1015 1255 -1
1015 1256 -1
1015 1270 -1
1015 1271 -1
1015 1272 -1
1016 1016 2.6E1
1016 1017 -1
1016 1255 -1
1016 1256 -1
1016 1257 -1
1016 1271 -1
1016 1272 -1
1016 1273 -1
1017 1017 2.6E1
1017 1018 -1
1017 1256 -1
1017 1257 -1
1017 1258 -1
1017 1272 -1
1017 1273 -1
1017 1274 -1
1018 1018 2.6E1
1018 1019 -1
1018 1257 -1
1018 1258 -1
1018 1259 -1
1018 1273 -1
1018 1274 -1
1018 1275 -1
1019 1019 2.6E1
1019 1020 -1
1019 1258 -1
1019 1259 -1
1019 1260 -1
1019 1274 -1
1019 1275 -1
1019 1276 -1
1020 1020 2.6E1
1020 1021 -1
1020 1259 -1
1020 1260 -1
1020 1261 -1
1020 1275 -1
1020 1276 -1
1020 1277 -1
1021 1021 2.6E1
1021 1022 -1
1021 1260 -1
1021 1261 -1
1021 1262 -1
1021 1276 -1
1021 1277 -1
1021 1278 -1
1022 1022 2.6E1
1022 1023 -1
1022 1261 -1
1022 1262 -1
1022 1263 -1
1022 1277 -1
1022 1278 -1
1022 1279 -1
1023 1023 2.6E1
1023 1024 -1
1023 1262 -1
1023 1263 -1
1023 1264 -1
1023 1278 -1
1023 1279 -1
1023 1280 -1
1024 1024 2.6E1
1024 1263 -1
1024 1264 -1
1024 1279 -1
1024 1280 -1
1025 1025 2.6E1
1025 1026 -1
1025 1041 -1
1025 1042 -1
1025 1281 -1
1025 1282 -1
1025 1297 -1
1025 1298 -1
1026 1026 2.6E1
1026 1027 -1
1026 1041 -1
1026 1042 -1
1026 1043 -1
1026 1281 -1
1026 1282 -1
1026 1283 -1
1026 1297 -1
1026 1298 -1
1026 1299 -1
1027 1027 2.6E1
1027 1028 -1
1027 1042 -1
1027 1043 -1
1027 1044 -1
1027 1282 -1
1027 1283 -1
1027 1284 -1
1027 1298 -1
1027 1299 -1
1027 1300 -1
1028 1028 2.6E1
1028 1029 -1
1028 1043 -1
1028 1044 -1
1028 1045 -1
1028 1283 -1
1028 1284 -1
1028 1285 -1
1028 1299 -1
1028 1300 -1
1028 1301 -1
1029 1029 2.6E1
1029 1030 -1
1029 1044 -1
1029 1045 -1
1029 1046 -1
1029 1284 -1
1029 1285 -1
1029 1286 -1
1029 1300 -1
1029 1301 -1
1029 1302 -1
1030 1030 2.6E1
1030 1031 -1
1030 1045 -1
1030 1046 -1
1030 1047 -1
1030 1285 -1
1030 1286 -1
1030 1287 -1
1030 1301 -1
1030 1302 -1
1030 1303 -1
1031 1031 2.6E1
1031 1032 -1
1031 1046 -1
1031 1047 -1
1031 1048 -1
1031 1286 -1
1031 1287 -1
1031 1288 -1
1031 1302 -1
1031 1303 -1
1031 1304 -1
1032 1032 2.6E1
1032 1033 -1
1032 1047 -1
1032 1048 -1
1032 1049 -1
1032 1287 -1
1032 1288 -1
1032 1289 -1
1032 1303 -1
1032 1304 -1
1032 1305 -1
1033 1033 2.6E1
1033 1034 -1
1033 1048 -1
1033 1049 -1
1033 1050 -1
1033 1288 -1
1033 1289 -1
1033 1290 -1
1033 1304 -1
1033 1305 -1
1033 1306 -1
1034 1034 2.6E1
1034 1035 -1
1034 1049 -1
1034 1050 -1
1034 1051 -1
1034 1289 -1
1034 1290 -1
1034 1291 -1
1034 1305 -1
1034 1306 -1
1034 1307 -1
1035 1035 2.6E1
1035 1036 -1
1035 1050 -1
1035 1051 -1
1035 1052 -1
1035 1290 -1
1035 1291 -1
1035 1292 -1
1035 1306 -1
1035 1307 -1
1035 1308 -1
1036 1036 2.6E1
1036 1037 -1
1036 1051 -1
1036 1052 -1
1036 1053 -1
1036 1291 -1
1036 1292 -1
1036 1293 -1
1036 1307 -1
1036 1308 -1
1036 1309 -1
1037 1037 2.6E1
1037 1038 -1
1037 1052 -1
1037 1053 -1
1037 1054 -1
1037 1292 -1
1037 1293 -1
1037 1294 -1
1037 1308 -1
1037 1309 -1
1037 1310 -1
1038 1038 2.6E1
1038 1039 -1
1038 1053 -1
1038 1054 -1
1038 1055 -1
1038 1293 -1
1038 1294 -1
1038 1295 -1
1038 1309 -1
1038 1310 -1
1038 1311 -1
1039 1039 2.6E1
1039 1040 -1
1039 1054 -1
1039 1055 -1
1039 1056 -1
1039 1294 -1
1039 1295 -1
1039 1296 -1
1039 1310 -1
1039 1311 -1
1039 1312 -1
1040 1040 2.6E1
1040 1055 -1
1040 1056 -1
1040 1295 -1
1040 1296 -1
1040 1311 -1
1040 1312 -1
1041 1041 2.6E1
1041 1042 -1
1041 1057 -1
1041 1058 -1
1041 1281 -1
1041 1282 -1
1041 1297 -1
1041 1298 -1
1041 1313 -1
1041 1314 -1
1042 1042 2.6E1
1042 1043 -1
1042 1057 -1
1042 1058 -1
1042 1059 -1
1042 1281 -1
1042 1282 -1
1042 1283 -1
1042 1297 -1
1042 1298 -1
1042 1299 -1
1042 1313 -1
1042 1314 -1
1042 1315 -1
1043 1043 2.6E1
1043 1044 -1
1043 1058 -1
1043 1059 -1
1043 1060 -1
1043 1282 -1
1043 1283 -1
1043 1284 -1
1043 1298 -1
1043 1299 -1
1043 1300 -1
1043 1314 -1
1043 1315 -1
1043 1316 -1
1044 1044 2.6E1
1044 1045 -1
1044 1059 -1
1044 1060 -1
1044 1061 -1
1044 1283 -1
1044 1284 -1
1044 1285 -1
1044 1299 -1
1044 1300 -1
1044 1301 -1
1044 1315 -1
1044 1316 -1
1044 1317 -1
1045 1045 2.6E1
1045 1046 -1
1045 1060 -1
1045 1061 -1
1045 1062 -1
1045 1284 -1
1045 1285 -1
1045 1286 -1
1045 1300 -1
1045 1301 -1
1045 1302 -1
1045 1316 -1
1045 1317 -1
1045 1318 -1
1046 1046 2.6E1
1046 1047 -1
1046 1061 -1
1046 1062 -1
1046 1063 -1
1046 1285 -1
1046 1286 -1
1046 1287 -1
1046 1301 -1
1046 1302 -1
1046 1303 -1
1046 1317 -1
1046 1318 -1
1046 1319 -1
1047 1047 2.6E1
1047 1048 -1
1047 1062 -1
1047 1063 -1
1047 1064 -1
1047 1286 -1
1047 1287 -1
1047 1288 -1
1047 1302 -1
1047 1303 -1
1047 1304 -1
1047 1318 -1
1047 1319 -1
1047 1320 -1
1048 1048 2.6E1
1048 1049 -1
1048 1063 -1
1048 1064 -1
1048 1065 -1
1048 1287 -1
1048 1288 -1
1048 1289 -1
1048 1303 -1
1048 1304 -1
1048 1305 -1
1048 1319 -1
1048 1320 -1
1048 1321 -1
1049 1049 2.6E1
1049 1050 -1
1049 1064 -1
1049 1065 -1
1049 1066 -1
1049 1288 -1
1049 1289 -1
1049 1290 -1
1049 1304 -1
1049 1305 -1
1049 1306 -1
1049 1320 -1
1049 1321 -1
1049 1322 -1
1050 1050 2.6E1
1050 1051 -1
1050 1065 -1
1050 1066 -1
1050 1067 -1
1050 1289 -1
1050 1290 -1
1050 1291 -1
1050 1305 -1
1050 1306 -1
1050 1307 -1
1050 1321 -1
1050 1322 -1
1050 1323 -1
1051 1051 2.6E1
1051 1052 -1
1051 1066 -1
1051 1067 -1
1051 1068 -1
1051 1290 -1
1051 1291 -1
1051 1292 -1
1051 1306 -1
1051 1307 -1
1051 1308 -1
1051 1322 -1
1051 1323 -1
1051 1324 -1
1052 1052 2.6E1
1052 1053 -1
1052 1067 -1
1052 1068 -1
1052 1069 -1
1052 1291 -1
1052 1292 -1
1052 1293 -1
1052 1307 -1
1052 1308 -1
1052 1309 -1
1052 1323 -1
1052 1324 -1
1052 1325 -1
1053 1053 2.6E1
1053 1054 -1
1053 1068 -1
1053 1069 -1
1053 1070 -1
1053 1292 -1
1053 1293 -1
1053 1294 -1
1053 1308 -1
1053 1309 -1
1053 1310 -1
1053 1324 -1
1053 1325 -1
1053 1326 -1
1054 1054 2.6E1
1054 1055 -1
1054 1069 -1
1054 1070 -1
1054 1071 -1
1054 1293 -1
1054 1294 -1
1054 1295 -1
1054 1309 -1
1054 1310 -1
1054 1311 -1
1054 1325 -1
1054 1326 -1
1054 1327 -1
1055 1055 2.6E1
1055 1056 -1
1055 1070 -1
1055 1071 -1
1055 1072 -1
1055 1294 -1
1055 1295 -1
1055 1296 -1
1055 1310 -1
1055 1311 -1
1055 1312 -1
1055 1326 -1
1055 1327 -1
1055 1328 -1
1056 1056 2.6E1
1056 1071 -1
1056 1072 -1
1056 1295 -1
1056 1296 -1
1056 1311 -1
1056 1312 -1
1056 1327 -1
1056 1328 -1
1057 1057 2.6E1
1057 1058 -1
1057 1073 -1
1057 1074 -1
1057 1297 -1
1057 1298 -1
1057 1313 -1
1057 1314 -1
1057 1329 -1
1057 1330 -1
1058 1058 2.6E1
1058 1059 -1
1058 1073 -1
1058 1074 -1
1058 1075 -1
1058 1297 -1
1058 1298 -1
1058 1299 -1
1058 1313 -1
1058 1314 -1
1058 1315 -1
1058 1329 -1
1058 1330 -1
1058 1331 -1
1059 1059 2.6E1
1059 1060 -1
1059 1074 -1
1059 1075 -1
1059 1076 -1
1059 1298 -1
1059 1299 -1
1059 1300 -1
1059 1314 -1
1059 1315 -1
1059 1316 -1
1059 1330 -1
1059 1331 -1
1059 1332 -1
1060 1060 2.6E1
1060 1061 -1
1060 1075 -1
1060 1076 -1
1060 1077 -1
1060 1299 -1
1060 1300 -1
1060 1301 -1
1060 1315 -1
1060 1316 -1
1060 1317 -1
1060 1331 -1
1060 1332 -1
1060 1333 -1
1061 1061 2.6E1
1061 1062 -1
1061 1076 -1
1061 1077 -1
1061 1078 -1
1061 1300 -1
1061 1301 -1
1061 1302 -1
1061 1316 -1
1061 1317 -1
1061 1318 -1
1061 1332 -1
1061 1333 -1
1061 1334 -1
1062 1062 2.6E1
1062 1063 -1
1062 1077 -1
1062 1078 -1
1062 1079 -1
1062 1301 -1
1062 1302 -1
1062 1303 -1
1062 1317 -1
1062 1318 -1
1062 1319 -1
1062 1333 -1
1062 1334 -1
1062 1335 -1
1063 1063 2.6E1
1063 1064 -1
1063 1078 -1
1063 1079 -1
1063 1080 -1
1063 1302 -1
1063 1303 -1
1063 1304 -1
1063 1318 -1
1063 1319 -1
1063 1320 -1
1063 1334 -1
1063 1335 -1
1063 1336 -1
1064 1064 2.6E1
1064 1065 -1
1064 1079 -1
1064 1080 -1
1064 1081 -1
1064 1303 -1
1064 1304 -1
1064 1305 -1
1064 1319 -1
1064 1320 -1
1064 1321 -1
1064 1335 -1
1064 1336 -1
1064 1337 -1
1065 1065 2.6E1
1065 1066 -1
1065 1080 -1
1065 1081 -1
1065 1082 -1
1065 1304 -1
1065 1305 -1
1065 1306 -1
1065 1320 -1
1065 1321 -1
1065 1322 -1
1065 1336 -1
1065 1337 -1
1065 1338 -1
1066 1066 2.6E1
1066 1067 -1
1066 1081 -1
1066 1082 -1
1066 1083 -1
1066 1305 -1
1066 1306 -1
1066 1307 -1
1066 1321 -1
1066 1322 -1
1066 1323 -1
1066 1337 -1
1066 1338 -1
1066 1339 -1
1067 1067 2.6E1
1067 1068 -1
1067 1082 -1
1067 1083 -1
1067 1084 -1
1067 1306 -1
1067 1307 -1
1067 1308 -1
1067 1322 -1
1067 1323 -1
1067 1324 -1
1067 1338 -1
1067 1339 -1
1067 1340 -1
1068 1068 2.6E1
1068 1069 -1
1068 1083 -1
1068 1084 -1
1068 1085 -1
1068 1307 -1
1068 1308 -1
1068 1309 -1
1068 1323 -1
1068 1324 -1
1068 1325 -1
1068 1339 -1
1068 1340 -1
1068 1341 -1
1069 1069 2.6E1
1069 1070 -1
1069 1084 -1
1069 1085 -1
1069 1086 -1
1069 1308 -1
1069 1309 -1
1069 1310 -1
1069 1324 -1
1069 1325 -1
1069 1326 -1
1069 1340 -1
1069 1341 -1
1069 1342 -1
1070 1070 2.6E1
1070 1071 -1
1070 1085 -1
1070 1086 -1
1070 1087 -1
1070 1309 -1
1070 1310 -1
1070 1311 -1
1070 1325 -1
1070 1326 -1
1070 1327 -1
1070 1341 -1
1070 1342 -1
1070 1343 -1
1071 1071 2.6E1
1071 1072 -1
1071 1086 -1
1071 1087 -1
1071 1088 -1
1071 1310 -1
1071 1311 -1
1071 1312 -1
1071 1326 -1
1071 1327 -1
1071 1328 -1
1071 1342 -1
1071 1343 -1
1071 1344 -1
1072 1072 2.6E1
1072 1087 -1
1072 1088 -1
1072 1311 -1
1072 1312 -1
1072 1327 -1
1072 1328 -1
1072 1343 -1
1072 1344 -1
1073 1073 2.6E1
1073 1074 -1
1073 1089 -1
1073 1090 -1
1073 1313 -1
1073 1314 -1
1073 1329 -1
1073 1330 -1
1073 1345 -1
1073 1346 -1
1074 1074 2.6E1
1074 1075 -1
1074 1089 -1
1074 1090 -1
1074 1091 -1
1074 1313 -1
1074 1314 -1
1074 1315 -1
1074 1329 -1
1074 1330 -1
1074 1331 -1
1074 1345 -1
1074 1346 -1
1074 1347 -1
1075 1075 2.6E1
1075 1076 -1
1075 1090 -1
1075 1091 -1
1075 1092 -1
1075 1314 -1
1075 1315 -1
1075 1316 -1
1075 1330 -1
1075 1331 -1
1075 1332 -1
1075 1346 -1
1075 1347 -1
1075 1348 -1
1076 1076 2.6E1
1076 1077 -1
1076 1091 -1
1076 1092 -1
1076 1093 -1
1076 1315 -1
1076 1316 -1
1076 1317 -1
1076 1331 -1
1076 1332 -1
1076 1333 -1
1076 1347 -1
1076 1348 -1
1076 1349 -1
1077 1077 2.6E1
1077 1078 -1
1077 1092 -1
1077 1093 -1
1077 1094 -1
1077 1316 -1
1077 1317 -1
1077 1318 -1
1077 1332 -1
1077 1333 -1
1077 1334 -1
1077 1348 -1
1077 1349 -1
1077 1350 -1
1078 1078 2.6E1
1078 1079 -1
1078 1093 -1
1078 1094 -1
1078 1095 -1
1078 1317 -1
1078 1318 -1
1078 1319 -1
1078 1333 -1
1078 1334 -1
1078 1335 -1
1078 1349 -1
1078 1350 -1
1078 1351 -1
1079 1079 2.6E1
1079 1080 -1
1079 1094 -1
1079 1095 -1
1079 1096 -1
1079 1318 -1
1079 1319 -1
1079 1320 -1
1079 1334 -1
1079 1335 -1
1079 1336 -1
1079 1350 -1
1079 1351 -1
1079 1352 -1
1080 1080 2.6E1
1080 1081 -1
1080 1095 -1
1080 1096 -1
1080 1097 -1
1080 1319 -1
1080 1320 -1
1080 1321 -1
1080 1335 -1
1080 1336 -1
1080 1337 -1
1080 1351 -1
1080 1352 -1
1080 1353 -1
1081 1081 2.6E1
1081 1082 -1
1081 1096 -1
1081 1097 -1
1081 1098 -1
1081 1320 -1
1081 1321 -1
1081 1322 -1
1081 1336 -1
1081 1337 -1
1081 1338 -1
1081 1352 -1
1081 1353 -1
1081 1354 -1
1082 1082 2.6E1
1082 1083 -1
1082 1097 -1
1082 1098 -1
1082 1099 -1
1082 1321 -1
1082 1322 -1
1082 1323 -1
1082 1337 -1
1082 1338 -1
1082 1339 -1
1082 1353 -1
1082 1354 -1
1082 1355 -1
1083 1083 2.6E1
1083 1084 -1
1083 1098 -1
1083 1099 -1
1083 1100 -1
1083 1322 -1
1083 1323 -1
1083 1324 -1
1083 1338 -1
1083 1339 -1
1083 1340 -1
1083 1354 -1
1083 1355 -1
1083 1356 -1
1084 1084 2.6E1
1084 1085 -1
1084 1099 -1
1084 1100 -1
1084 1101 -1
1084 1323 -1
1084 1324 -1
1084 1325 -1
1084 1339 -1
1084 1340 -1
1084 1341 -1
1084 1355 -1
1084 1356 -1
1084 1357 -1
1085 1085 2.6E1
1085 1086 -1
1085 1100 -1
1085 1101 -1
1085 1102 -1
1085 1324 -1
1085 1325 -1
1085 1326 -1
1085 1340 -1
1085 1341 -1
1085 1342 -1
1085 1356 -1
1085 1357 -1
1085 1358 -1
1086 1086 2.6E1
1086 1087 -1
1086 1101 -1
1086 1102 -1
1086 1103 -1
1086 1325 -1
1086 1326 -1
1086 1327 -1
1086 1341 -1
1086 1342 -1
1086 1343 -1
1086 1357 -1
1086 1358 -1
1086 1359 -1
1087 1087 2.6E1
1087 1088 -1
1087 1102 -1
1087 1103 -1
1087 1104 -1
1087 1326 -1
1087 1327 -1
1087 1328 -1
1087 1342 -1
1087 1343 -1
1087 1344 -1
1087 1358 -1
1087 1359 -1
1087 1360 -1
1088 1088 2.6E1
1088 1103 -1
1088 1104 -1
1088 1327 -1
1088 1328 -1
1088 1343 -1
1088 1344 -1
1088 1359 -1
1088 1360 -1
1089 1089 2.6E1
1089 1090 -1
1089 1105 -1
1089 1106 -1
1089 1329 -1
1089 1330 -1
1089 1345 -1
1089 1346 -1
1089 1361 -1
1089 1362 -1
1090 1090 2.6E1
1090 1091 -1
1090 1105 -1
1090 1106 -1
1090 1107 -1
1090 1329 -1
1090 1330 -1
1090 1331 -1
1090 1345 -1
1090 1346 -1
1090 1347 -1
1090 1361 -1
1090 1362 -1
1090 1363 -1
1091 1091 2.6E1
1091 1092 -1
1091 1106 -1
1091 1107 -1
1091 1108 -1
1091 1330 -1
1091 1331 -1
1091 1332 -1
1091 1346 -1
1091 1347 -1
1091 1348 -1
1091 1362 -1
1091 1363 -1
1091 1364 -1
1092 1092 2.6E1
1092 1093 -1
1092 1107 -1
1092 1108 -1
1092 1109 -1
1092 1331 -1
1092 1332 -1
1092 1333 -1
1092 1347 -1
1092 1348 -1
1092 1349 -1
1092 1363 -1
1092 1364 -1
1092 1365 -1
1093 1093 2.6E1
1093 1094 -1
1093 1108 -1
1093 1109 -1
1093 1110 -1
1093 1332 -1
1093 1333 -1
1093 1334 -1
1093 1348 -1
1093 1349 -1
1093 1350 -1
1093 1364 -1
1093 1365 -1
1093 1366 -1
1094 1094 2.6E1
1094 1095 -1
1094 1109 -1
1094 1110 -1
1094 1111 -1
1094 1333 -1
1094 1334 -1
1094 1335 -1
1094 1349 -1
1094 1350 -1
1094 1351 -1
1094 1365 -1
1094 1366 -1
1094 1367 -1
1095 1095 2.6E1
1095 1096 -1
1095 1110 -1
1095 1111 -1
1095 1112 -1
1095 1334 -1
1095 1335 -1
1095 1336 -1
1095 1350 -1
1095 1351 -1
1095 1352 -1
1095 1366 -1
1095 1367 -1
1095 1368 -1
1096 1096 2.6E1
1096 1097 -1
1096 1111 -1
1096 1112 -1
1096 1113 -1
1096 1335 -1
1096 1336 -1
1096 1337 -1
1096 1351 -1
1096 1352 -1
1096 1353 -1
1096 1367 -1
1096 1368 -1
1096 1369 -1
1097 1097 2.6E1
1097 1098 -1
1097 1112 -1
1097 1113 -1
1097 1114 -1
1097 1336 -1
1097 1337 -1
1097 1338 -1
1097 1352 -1
1097 1353 -1
1097 1354 -1
1097 1368 -1
1097 1369 -1
1097 1370 -1
1098 1098 2.6E1
1098 1099 -1
1098 1113 -1
1098 1114 -1
1098 1115 -1
1098 1337 -1
1098 1338 -1
1098 1339 -1
1098 1353 -1
1098 1354 -1
1098 1355 -1
1098 1369 -1
1098 1370 -1
1098 1371 -1
1099 1099 2.6E1
1099 1100 -1
1099 1114 -1
1099 1115 -1
1099 1116 -1
1099 1338 -1
1099 1339 -1
1099 1340 -1
1099 1354 -1
1099 1355 -1
1099 1356 -1
1099 1370 -1
1099 1371 -1
1099 1372 -1
1100 1100 2.6E1
1100 1101 -1
1100 1115 -1
1100 1116 -1
1100 1117 -1
1100 1339 -1
1100 1340 -1
1100 1341 -1
1100 1355 -1
1100 1356 -1
1100 1357 -1
1100 1371 -1
1100 1372 -1
1100 1373 -1
1101 1101 2.6E1
1101 1102 -1
1101 1116 -1
1101 1117 -1
1101 1118 -1
1101 1340 -1
1101 1341 -1
1101 1342 -1
1101 1356 -1
1101 1357 -1
1101 1358 -1
1101 1372 -1
1101 1373 -1
1101 1374 -1
1102 1102 2.6E1
1102 1103 -1
1102 1117 -1
1102 1118 -1
1102 1119 -1
1102 1341 -1
1102 1342 -1
1102 1343 -1
1102 1357 -1
1102 1358 -1
1102 1359 -1
1102 1373 -1
1102 1374 -1
1102 1375 -1
1103 1103 2.6E1
1103 1104 -1
1103 1118 -1
1103 1119 -1
1103 1120 -1
1103 1342 -1
1103 1343 -1
1103 1344 -1
1103 1358 -1
1103 1359 -1
1103 1360 -1
1103 1374 -1
1103 1375 -1
1103 1376 -1
1104 1104 2.6E1
1104 1119 -1
1104 1120 -1
1104 1343 -1
1104 1344 -1
1104 1359 -1
1104 1360 -1
1104 1375 -1
1104 1376 -1
1105 1105 2.6E1
1105 1106 -1
1105 1121 -1
1105 1122 -1
1105 1345 -1
1105 1346 -1
1105 1361 -1
1105 1362 -1
1105 1377 -1
1105 1378 -1
1106 1106 2.6E1
1106 1107 -1
1106 1121 -1
1106 1122 -1
1106 1123 -1
1106 1345 -1
1106 1346 -1
1106 1347 -1
1106 1361 -1
1106 1362 -1
1106 1363 -1
1106 1377 -1
1106 1378 -1
1106 1379 -1
1107 1107 2.6E1
1107 1108 -1
1107 1122 -1
1107 1123 -1
1107 1124 -1
1107 1346 -1
1107 1347 -1
1107 1348 -1
1107 1362 -1
1107 1363 -1
1107 1364 -1
1107 1378 -1
1107 1379 -1
1107 1380 -1
1108 1108 2.6E1
1108 1109 -1
1108 1123 -1
1108 1124 -1
1108 1125 -1
1108 1347 -1
1108 1348 -1
1108 1349 -1
1108 1363 -1
1108 1364 -1
1108 1365 -1
1108 1379 -1
1108 1380 -1
1108 1381 -1
1109 1109 2.6E1
1109 1110 -1
1109 1124 -1
1109 1125 -1
1109 1126 -1
1109 1348 -1
1109 1349 -1
1109 1350 -1
1109 1364 -1
1109 1365 -1
1109 1366 -1
1109 1380 -1
1109 1381 -1
1109 1382 -1
1110 1110 2.6E1
1110 1111 -1
1110 1125 -1
1110 1126 -1
1110 1127 -1
1110 1349 -1
1110 1350 -1
1110 1351 -1
1110 1365 -1
1110 1366 -1
1110 1367 -1
1110 1381 -1
1110 1382 -1
1110 1383 -1
1111 1111 2.6E1
1111 1112 -1
1111 1126 -1
1111 1127 -1
1111 1128 -1
1111 1350 -1
1111 1351 -1
1111 1352 -1
1111 1366 -1
1111 1367 -1
1111 1368 -1
1111 1382 -1
1111 1383 -1
1111 1384 -1
1112 1112 2.6E1
1112 1113 -1
1112 1127 -1
1112 1128 -1
1112 1129 -1
1112 1351 -1
1112 1352 -1
1112 1353 -1
1112 1367 -1
1112 1368 -1
1112 1369 -1
1112 1383 -1
1112 1384 -1
1112 1385 -1
1113 1113 2.6E1
1113 1114 -1
1113 1128 -1
1113 1129 -1
1113 1130 -1
1113 1352 -1
1113 1353 -1
1113 1354 -1
1113 1368 -1
1113 1369 -1
1113 1370 -1
1113 1384 -1
1113 1385 -1
1113 1386 -1
1114 1114 2.6E1
1114 1115 -1
1114 1129 -1
1114 1130 -1
1114 1131 -1
1114 1353 -1
1114 1354 -1
1114 1355 -1
1114 1369 -1
1114 1370 -1
1114 1371 -1
1114 1385 -1
1114 1386 -1
1114 1387 -1
1115 1115 2.6E1
1115 1116 -1
1115 1130 -1
1115 1131 -1
1115 1132 -1
1115 1354 -1
1115 1355 -1
1115 1356 -1
1115 1370 -1
1115 1371 -1
1115 1372 -1
1115 1386 -1
1115 1387 -1
1115 1388 -1
1116 1116 2.6E1
1116 1117 -1
1116 1131 -1
1116 1132 -1
1116 1133 -1
1116 1355 -1
1116 1356 -1
1116 1357 -1
1116 1371 -1
1116 1372 -1
1116 1373 -1
1116 1387 -1
1116 1388 -1
1116 1389 -1
1117 1117 2.6E1
1117 1118 -1
1117 1132 -1
1117 1133 -1
1117 1134 -1
1117 1356 -1
1117 1357 -1
1117 1358 -1
1117 1372 -1
1117 1373 -1
1117 1374 -1
1117 1388 -1
1117 1389 -1
1117 1390 -1
1118 1118 2.6E1
1118 1119 -1
1118 1133 -1
1118 1134 -1
1118 1135 -1
1118 1357 -1
1118 1358 -1
1118 1359 -1
1118 1373 -1
1118 1374 -1
1118 1375 -1
1118 1389 -1
1118 1390 -1
1118 1391 -1
1119 1119 2.6E1
1119 1120 -1
1119 1134 -1
1119 1135 -1
1119 1136 -1
1119 1358 -1
1119 1359 -1
1119 1360 -1
1119 1374 -1
1119 1375 -1
1119 1376 -1
1119 1390 -1
1119 1391 -1
1119 1392 -1
1120 1120 2.6E1
1120 1135 -1
1120 1136 -1
1120 1359 -1
1120 1360 -1
1120 1375 -1
1120 1376 -1
1120 1391 -1
1120 1392 -1
1121 1121 2.6E1
1121 1122 -1
1121 1137 -1
1121 1138 -1
1121 1361 -1
1121 1362 -1
1121 1377 -1
1121 1378 -1
1121 1393 -1
1121 1394 -1
1122 1122 2.6E1
1122 1123 -1
1122 1137 -1
1122 1138 -1
1122 1139 -1
1122 1361 -1
1122 1362 -1
1122 1363 -1
1122 1377 -1
1122 1378 -1
1122 1379 -1
1122 1393 -1
1122 1394 -1
1122 1395 -1
1123 1123 2.6E1
1123 1124 -1
1123 1138 -1
1123 1139 -1
1123 1140 -1
1123 1362 -1
1123 1363 -1
1123 1364 -1
1123 1378 -1
1123 1379 -1
1123 1380 -1
1123 1394 -1
1123 1395 -1
1123 1396 -1
1124 1124 2.6E1
1124 1125 -1
1124 1139 -1
1124 1140 -1
1124 1141 -1
1124 1363 -1
1124 1364 -1
1124 1365 -1
1124 1379 -1
1124 1380 -1
1124 1381 -1
1124 1395 -1
1124 1396 -1
1124 1397 -1
1125 1125 2.6E1
1125 1126 -1
1125 1140 -1
1125 1141 -1
1125 1142 -1
1125 1364 -1
1125 1365 -1
1125 1366 -1
1125 1380 -1
1125 1381 -1
1125 1382 -1
1125 1396 -1
1125 1397 -1
1125 1398 -1
1126 1126 2.6E1
1126 1127 -1
1126 1141 -1
1126 1142 -1
1126 1143 -1
1126 1365 -1
1126 1366 -1
1126 1367 -1
1126 1381 -1
1126 1382 -1
1126 1383 -1
1126 1397 -1
1126 1398 -1
1126 1399 -1
1127 1127 2.6E1
1127 1128 -1
1127 1142 -1
1127 1143 -1
1127 1144 -1
1127 1366 -1
1127 1367 -1
1127 1368 -1
1127 1382 -1
1127 1383 -1
1127 1384 -1
1127 1398 -1
1127 1399 -1
1127 1400 -1
1128 1128 2.6E1
1128 1129 -1
1128 1143 -1
1128 1144 -1
1128 1145 -1
1128 1367 -1
1128 1368 -1
1128 1369 -1
1128 1383 -1
1128 1384 -1
1128 1385 -1
1128 1399 -1
1128 1400 -1
1128 1401 -1
1129 1129 2.6E1
1129 1130 -1
1129 1144 -1
1129 1145 -1
1129 1146 -1
1129 1368 -1
1129 1369 -1
1129 1370 -1
1129 1384 -1
1129 1385 -1
1129 1386 -1
1129 1400 -1
1129 1401 -1
1129 1402 -1
1130 1130 2.6E1
1130 1131 -1
1130 1145 -1
1130 1146 -1
1130 1147 -1
1130 1369 -1
1130 1370 -1
1130 1371 -1
1130 1385 -1
1130 1386 -1
1130 1387 -1
1130 1401 -1
1130 1402 -1
1130 1403 -1
1131 1131 2.6E1
1131 1132 -1
1131 1146 -1
1131 1147 -1
1131 1148 -1
1131 1370 -1
1131 1371 -1
1131 1372 -1
1131 1386 -1
1131 1387 -1
1131 1388 -1
1131 1402 -1
1131 1403 -1
1131 1404 -1
1132 1132 2.6E1
1132 1133 -1
1132 1147 -1
1132 1148 -1
1132 1149 -1
1132 1371 -1
1132 1372 -1
1132 1373 -1
1132 1387 -1
1132 1388 -1
1132 1389 -1
1132 1403 -1
1132 1404 -1
1132 1405 -1
1133 1133 2.6E1
1133 1134 -1
1133 1148 -1
1133 1149 -1
1133 1150 -1
1133 1372 -1
1133 1373 -1
1133 1374 -1
1133 1388 -1
1133 1389 -1
1133 1390 -1
1133 1404 -1
1133 1405 -1
1133 1406 -1
1134 1134 2.6E1
1134 1135 -1
1134 1149 -1
1134 1150 -1
1134 1151 -1
1134 1373 -1
1134 1374 -1
1134 1375 -1
1134 1389 -1
1134 1390 -1
1134 1391 -1
1134 1405 -1
1134 1406 -1
1134 1407 -1
1135 1135 2.6E1
1135 1136 -1
1135 1150 -1
1135 1151 -1
1135 1152 -1
1135 1374 -1
1135 1375 -1
1135 1376 -1
1135 1390 -1
1135 1391 -1
1135 1392 -1
1135 1406 -1
1135 1407 -1
1135 1408 -1
1136 1136 2.6E1
1136 1151 -1
1136 1152 -1
1136 1375 -1
1136 1376 -1
1136 1391 -1
1136 1392 -1
1136 1407 -1
1136 1408 -1
1137 1137 2.6E1
1137 1138 -1
1137 1153 -1
1137 1154 -1
1137 1377 -1
1137 1378 -1
1137 1393 -1
1137 1394 -1
1137 1409 -1
1137 1410 -1
1138 1138 2.6E1
1138 1139 -1
1138 1153 -1
1138 1154 -1
1138 1155 -1
1138 1377 -1
1138 1378 -1
1138 1379 -1
1138 1393 -1
1138 1394 -1
1138 1395 -1
1138 1409 -1
1138 1410 -1
1138 1411 -1
1139 1139 2.6E1
1139 1140 -1
1139 1154 -1
1139 1155 -1
1139 1156 -1
1139 1378 -1
1139 1379 -1
1139 1380 -1
1139 1394 -1
1139 1395 -1
1139 1396 -1
1139 1410 -1
1139 1411 -1
1139 1412 -1
1140 1140 2.6E1
1140 1141 -1
1140 1155 -1
1140 1156 -1
1140 1157 -1
1140 1379 -1
1140 1380 -1
1140 1381 -1
1140 1395 -1
1140 1396 -1
1140 1397 -1
1140 1411 -1
1140 1412 -1
1140 1413 -1
1141 1141 2.6E1
1141 1142 -1
1141 1156 -1
1141 1157 -1
1141 1158 -1
1141 1380 -1
1141 1381 -1
1141 1382 -1
1141 1396 -1
1141 1397 -1
1141 1398 -1
1141 1412 -1
1141 1413 -1
1141 1414 -1
1142 1142 2.6E1
1142 1143 -1
1142 1157 -1
1142 1158 -1
1142 1159 -1
1142 1381 -1
1142 1382 -1
1142 1383 -1
1142 1397 -1
1142 1398 -1
1142 1399 -1
1142 1413 -1
1142 1414 -1
1142 1415 -1
1143 1143 2.6E1
1143 1144 -1
1143 1158 -1
1143 1159 -1
1143 1160 -1
1143 1382 -1
1143 1383 -1
1143 1384 -1
1143 1398 -1
1143 1399 -1
1143 1400 -1
1143 1414 -1
1143 1415 -1
1143 1416 -1
1144 1144 2.6E1
1144 1145 -1
1144 1159 -1
1144 1160 -1
1144 1161 -1
1144 1383 -1
1144 1384 -1
1144 1385 -1
1144 1399 -1
1144 1400 -1
1144 1401 -1
1144 1415 -1
1144 1416 -1
1144 1417 -1
1145 1145 2.6E1
1145 1146 -1
1145 1160 -1
1145 1161 -1
1145 1162 -1
1145 1384 -1
1145 1385 -1
1145 1386 -1
1145 1400 -1
1145 1401 -1
1145 1402 -1
1145 1416 -1
1145 1417 -1
1145 1418 -1
1146 1146 2.6E1
1146 1147 -1
1146 1161 -1
1146 1162 -1
1146 1163 -1
1146 1385 -1
1146 1386 -1
1146 1387 -1
1146 1401 -1
1146 1402 -1
1146 1403 -1
1146 1417 -1
1146 1418 -1
1146 1419 -1
1147 1147 2.6E1
1147 1148 -1
1147 1162 -1
1147 1163 -1
1147 1164 -1
1147 1386 -1
1147 1387 -1
1147 1388 -1
1147 1402 -1
1147 1403 -1
1147 1404 -1
1147 1418 -1
1147 1419 -1
1147 1420 -1
1148 1148 2.6E1
1148 1149 -1
1148 1163 -1
1148 1164 -1
1148 1165 -1
1148 1387 -1
1148 1388 -1
1148 1389 -1
1148 1403 -1
1148 1404 -1
1148 1405 -1
1148 1419 -1
1148 1420 -1
1148 1421 -1
1149 1149 2.6E1
1149 1150 -1
1149 1164 -1
1149 1165 -1
1149 1166 -1
1149 1388 -1
1149 1389 -1
1149 1390 -1
1149 1404 -1
1149 1405 -1
1149 1406 -1
1149 1420 -1
1149 1421 -1
1149 1422 -1
1150 1150 2.6E1
1150 1151 -1
1150 1165 -1
1150 1166 -1
1150 1167 -1
1150 1389 -1
1150 1390 -1
1150 1391 -1
1150 1405 -1
1150 1406 -1
1150 1407 -1
1150 1421 -1
1150 1422 -1
1150 1423 -1
1151 1151 2.6E1
1151 1152 -1
1151 1166 -1
1151 1167 -1
1151 1168 -1
1151 1390 -1
1151 1391 -1
1151 1392 -1
1151 1406 -1
1151 1407 -1
1151 1408 -1
1151 1422 -1
1151 1423 -1
1151 1424 -1
1152 1152 2.6E1
1152 1167 -1
1152 1168 -1
1152 1391 -1
1152 1392 -1
1152 1407 -1
1152 1408 -1
1152 1423 -1
1152 1424 -1
1153 1153 2.6E1
1153 1154 -1
1153 1169 -1
1153 1170 -1
1153 1393 -1
1153 1394 -1
1153 1409 -1
1153 1410 -1
1153 1425 -1
1153 1426 -1
1154 1154 2.6E1
1154 1155 -1
1154 1169 -1
1154 1170 -1
1154 1171 -1
1154 1393 -1
1154 1394 -1
1154 1395 -1
1154 1409 -1
1154 1410 -1
1154 1411 -1
1154 1425 -1
1154 1426 -1
1154 1427 -1
1155 1155 2.6E1
1155 1156 -1
1155 1170 -1
1155 1171 -1
1155 1172 -1
1155 1394 -1
1155 1395 -1
1155 1396 -1
1155 1410 -1
1155 1411 -1
1155 1412 -1
1155 1426 -1
1155 1427 -1
1155 1428 -1
1156 1156 2.6E1
1156 1157 -1
1156 1171 -1
1156 1172 -1
1156 1173 -1
1156 1395 -1
1156 1396 -1
1156 1397 -1
1156 1411 -1
1156 1412 -1
1156 1413 -1
1156 1427 -1
1156 1428 -1
1156 1429 -1
1157 1157 2.6E1
1157 1158 -1
1157 1172 -1
1157 1173 -1
1157 1174 -1
1157 1396 -1
1157 1397 -1
1157 1398 -1
1157 1412 -1
1157 1413 -1
1157 1414 -1
1157 1428 -1
1157 1429 -1
1157 1430 -1
1158 1158 2.6E1
1158 1159 -1
1158 1173 -1
1158 1174 -1
1158 1175 -1
1158 1397 -1
1158 1398 -1
1158 1399 -1
1158 1413 -1
1158 1414 -1
1158 1415 -1
1158 1429 -1
1158 1430 -1
1158 1431 -1
1159 1159 2.6E1
1159 1160 -1
1159 1174 -1
1159 1175 -1
1159 1176 -1
1159 1398 -1
1159 1399 -1
1159 1400 -1
1159 1414 -1
1159 1415 -1
1159 1416 -1
1159 1430 -1
1159 1431 -1
1159 1432 -1
1160 1160 2.6E1
1160 1161 -1
1160 1175 -1
1160 1176 -1
1160 1177 -1
1160 1399 -1
1160 1400 -1
1160 1401 -1
1160 1415 -1
1160 1416 -1
1160 1417 -1
1160 1431 -1
1160 1432 -1
1160 1433 -1
1161 1161 2.6E1
1161 1162 -1
1161 1176 -1
1161 1177 -1
1161 1178 -1
1161 1400 -1
1161 1401 -1
1161 1402 -1
1161 1416 -1
1161 1417 -1
1161 1418 -1
1161 1432 -1
1161 1433 -1
1161 1434 -1
1162 1162 2.6E1
1162 1163 -1
1162 1177 -1
1162 1178 -1
1162 1179 -1
1162 1401 -1
1162 1402 -1
1162 1403 -1
1162 1417 -1
1162 1418 -1
1162 1419 -1
1162 1433 -1
1162 1434 -1
1162 1435 -1
1163 1163 2.6E1
1163 1164 -1
1163 1178 -1
1163 1179 -1
1163 1180 -1
1163 1402 -1
1163 1403 -1
1163 1404 -1
1163 1418 -1
1163 1419 -1
1163 1420 -1
1163 1434 -1
1163 1435 -1
1163 1436 -1
1164 1164 2.6E1
1164 1165 -1
1164 1179 -1
1164 1180 -1
1164 1181 -1
1164 1403 -1
1164 1404 -1
1164 1405 -1
1164 1419 -1
1164 1420 -1
1164 1421 -1
1164 1435 -1
1164 1436 -1
1164 1437 -1
1165 1165 2.6E1
1165 1166 -1
1165 1180 -1
1165 1181 -1
1165 1182 -1
1165 1404 -1
1165 1405 -1
1165 1406 -1
1165 1420 -1
1165 1421 -1
1165 1422 -1
1165 1436 -1
1165 1437 -1
1165 1438 -1
1166 1166 2.6E1
1166 1167 -1
1166 1181 -1
1166 1182 -1
1166 1183 -1
1166 1405 -1
1166 1406 -1
1166 1407 -1
1166 1421 -1
1166 1422 -1
1166 1423 -1
1166 1437 -1
1166 1438 -1
1166 1439 -1
1167 1167 2.6E1
1167 1168 -1
1167 1182 -1
1167 1183 -1
1167 1184 -1
1167 1406 -1
1167 1407 -1
1167 1408 -1
1167 1422 -1
1167 1423 -1
1167 1424 -1
1167 1438 -1
1167 1439 -1
1167 1440 -1
1168 1168 2.6E1
1168 1183 -1
1168 1184 -1
1168 1407 -1
1168 1408 -1
1168 1423 -1
1168 1424 -1
1168 1439 -1
1168 1440 -1
1169 1169 2.6E1
1169 1170 -1
1169 1185 -1
1169 1186 -1
1169 1409 -1
1169 1410 -1
1169 1425 -1
1169 1426 -1
1169 1441 -1
1169 1442 -1
1170 1170 2.6E1
1170 1171 -1
1170 1185 -1
1170 1186 -1
1170 1187 -1
1170 1409 -1
1170 1410 -1
1170 1411 -1
1170 1425 -1
1170 1426 -1
1170 1427 -1
1170 1441 -1
1170 1442 -1
1170 1443 -1
1171 1171 2.6E1
1171 1172 -1
1171 1186 -1
1171 1187 -1
1171 1188 -1
1171 1410 -1
1171 1411 -1
1171 1412 -1
1171 1426 -1
1171 1427 -1
1171 1428 -1
1171 1442 -1
1171 1443 -1
1171 1444 -1
1172 1172 2.6E1
1172 1173 -1
1172 1187 -1
1172 1188 -1
1172 1189 -1
1172 1411 -1
1172 1412 -1
1172 1413 -1
1172 1427 -1
1172 1428 -1
1172 1429 -1
1172 1443 -1
1172 1444 -1
1172 1445 -1
1173 1173 2.6E1
1173 1174 -1
1173 1188 -1
1173 1189 -1
1173 1190 -1
1173 1412 -1
1173 1413 -1
1173 1414 -1
1173 1428 -1
1173 1429 -1
1173 1430 -1
1173 1444 -1
1173 1445 -1
1173 1446 -1
1174 1174 2.6E1
1174 1175 -1
1174 1189 -1
1174 1190 -1
1174 1191 -1
1174 1413 -1
1174 1414 -1
1174 1415 -1
1174 1429 -1
1174 1430 -1
1174 1431 -1
1174 1445 -1
1174 1446 -1
1174 1447 -1
1175 1175 2.6E1
1175 1176 -1
1175 1190 -1
1175 1191 -1
1175 1192 -1
1175 1414 -1
1175 1415 -1
1175 1416 -1
1175 1430 -1
1175 1431 -1
1175 1432 -1
1175 1446 -1
1175 1447 -1
1175 1448 -1
1176 1176 2.6E1
1176 1177 -1
1176 1191 -1
1176 1192 -1
1176 1193 -1
1176 1415 -1
1176 1416 -1
1176 1417 -1
1176 1431 -1
1176 1432 -1
1176 1433 -1
1176 1447 -1
1176 1448 -1
1176 1449 -1
1177 1177 2.6E1
1177 1178 -1
1177 1192 -1
1177 1193 -1
1177 1194 -1
1177 1416 -1
1177 1417 -1
1177 1418 -1
1177 1432 -1
1177 1433 -1
1177 1434 -1
1177 1448 -1
1177 1449 -1
1177 1450 -1
1178 1178 2.6E1
1178 1179 -1
1178 1193 -1
1178 1194 -1
1178 1195 -1
1178 1417 -1
1178 1418 -1
1178 1419 -1
1178 1433 -1
1178 1434 -1
1178 1435 -1
1178 1449 -1
1178 1450 -1
1178 1451 -1
1179 1179 2.6E1
1179 1180 -1
1179 1194 -1
1179 1195 -1
1179 1196 -1
1179 1418 -1
1179 1419 -1
1179 1420 -1
1179 1434 -1
1179 1435 -1
1179 1436 -1
1179 1450 -1
1179 1451 -1
1179 1452 -1
1180 1180 2.6E1
1180 1181 -1
1180 1195 -1
1180 1196 -1
1180 1197 -1
1180 1419 -1
1180 1420 -1
1180 1421 -1
1180 1435 -1
1180 1436 -1
1180 1437 -1
1180 1451 -1
1180 1452 -1
1180 1453 -1
1181 1181 2.6E1
1181 1182 -1
1181 1196 -1
1181 1197 -1
1181 1198 -1
1181 1420 -1
1181 1421 -1
1181 1422 -1
1181 1436 -1
1181 1437 -1
1181 1438 -1
1181 1452 -1
1181 1453 -1
1181 1454 -1
1182 1182 2.6E1
1182 1183 -1
1182 1197 -1
1182 1198 -1
1182 1199 -1
1182 1421 -1
1182 1422 -1
1182 1423 -1
1182 1437 -1
1182 1438 -1
1182 1439 -1
1182 1453 -1
1182 1454 -1
1182 1455 -1
1183 1183 2.6E1
1183 1184 -1
1183 1198 -1
1183 1199 -1
1183 1200 -1
1183 1422 -1
1183 1423 -1
1183 1424 -1
1183 1438 -1
1183 1439 -1
1183 1440 -1
1183 1454 -1
1183 1455 -1
1183 1456 -1
1184 1184 2.6E1
1184 1199 -1
1184 1200 -1
1184 1423 -1
1184 1424 -1
1184 1439 -1
1184 1440 -1
1184 1455 -1
1184 1456 -1
1185 1185 2.6E1
1185 1186 -1
1185 1201 -1
1185 1202 -1
1185 1425 -1
1185 1426 -1
1185 1441 -1
1185 1442 -1
1185 1457 -1
1185 1458 -1
1186 1186 2.6E1
1186 1187 -1
1186 1201 -1
1186 1202 -1
1186 1203 -1
1186 1425 -1
1186 1426 -1
1186 1427 -1
1186 1441 -1
1186 1442 -1
1186 1443 -1
1186 1457 -1
1186 1458 -1
1186 1459 -1
1187 1187 2.6E1
1187 1188 -1
1187 1202 -1
1187 1203 -1
1187 1204 -1
1187 1426 -1
1187 1427 -1
1187 1428 -1
1187 1442 -1
1187 1443 -1
1187 1444 -1
1187 1458 -1
1187 1459 -1
1187 1460 -1
1188 1188 2.6E1
1188 1189 -1
1188 1203 -1
1188 1204 -1
1188 1205 -1
1188 1427 -1
1188 1428 -1
1188 1429 -1
1188 1443 -1
1188 1444 -1
1188 1445 -1
1188 1459 -1
1188 1460 -1
1188 1461 -1
1189 1189 2.6E1
1189 1190 -1
1189 1204 -1
1189 1205 -1
1189 1206 -1
1189 1428 -1
1189 1429 -1
1189 1430 -1
1189 1444 -1
1189 1445 -1
1189 1446 -1
1189 1460 -1
1189 1461 -1
1189 1462 -1
1190 1190 2.6E1
1190 1191 -1
1190 1205 -1
1190 1206 -1
1190 1207 -1
1190 1429 -1
1190 1430 -1
1190 1431 -1
1190 1445 -1
1190 1446 -1
1190 1447 -1
1190 1461 -1
1190 1462 -1
1190 1463 -1
1191 1191 2.6E1
1191 1192 -1
1191 1206 -1
1191 1207 -1
1191 1208 -1
1191 1430 -1
1191 1431 -1
1191 1432 -1
1191 1446 -1
1191 1447 -1
1191 1448 -1
1191 1462 -1
1191 1463 -1
1191 1464 -1
1192 1192 2.6E1
1192 1193 -1
1192 1207 -1
1192 1208 -1
1192 1209 -1
1192 1431 -1
1192 1432 -1
1192 1433 -1
1192 1447 -1
1192 1448 -1
1192 1449 -1
1192 1463 -1
1192 1464 -1
1192 1465 -1
1193 1193 2.6E1
1193 1194 -1
1193 1208 -1
1193 1209 -1
1193 1210 -1
1193 1432 -1
1193 1433 -1
1193 1434 -1
1193 1448 -1
1193 1449 -1
1193 1450 -1
1193 1464 -1
1193 1465 -1
1193 1466 -1
1194 1194 2.6E1
1194 1195 -1
1194 1209 -1
1194 1210 -1
1194 1211 -1
1194 1433 -1
1194 1434 -1
1194 1435 -1
1194 1449 -1
1194 1450 -1
1194 1451 -1
1194 1465 -1
1194 1466 -1
1194 1467 -1
1195 1195 2.6E1
1195 1196 -1
1195 1210 -1
1195 1211 -1
1195 1212 -1
1195 1434 -1
1195 1435 -1
1195 1436 -1
1195 1450 -1
1195 1451 -1
1195 1452 -1
1195 1466 -1
1195 1467 -1
1195 1468 -1
1196 1196 2.6E1
1196 1197 -1
1196 1211 -1
1196 1212 -1
1196 1213 -1
1196 1435 -1
1196 1436 -1
1196 1437 -1
1196 1451 -1
1196 1452 -1
1196 1453 -1
1196 1467 -1
1196 1468 -1
1196 1469 -1
1197 1197 2.6E1
1197 1198 -1
1197 1212 -1
1197 1213 -1
1197 1214 -1
1197 1436 -1
1197 1437 -1
1197 1438 -1
1197 1452 -1
1197 1453 -1
1197 1454 -1
1197 1468 -1
1197 1469 -1
1197 1470 -1
1198 1198 2.6E1
1198 1199 -1
1198 1213 -1
1198 1214 -1
1198 1215 -1
1198 1437 -1
1198 1438 -1
1198 1439 -1
1198 1453 -1
1198 1454 -1
1198 1455 -1
1198 1469 -1
1198 1470 -1
1198 1471 -1
1199 1199 2.6E1
1199 1200 -1
1199 1214 -1
1199 1215 -1
1199 1216 -1
1199 1438 -1
1199 1439 -1
1199 1440 -1
1199 1454 -1
1199 1455 -1
1199 1456 -1
1199 1470 -1
1199 1471 -1
1199 1472 -1
1200 1200 2.6E1
1200 1215 -1
1200 1216 -1
1200 1439 -1
1200 1440 -1
1200 1455 -1
1200 1456 -1
1200 1471 -1
1200 1472 -1
1201 1201 2.6E1
1201 1202 -1
1201 1217 -1
1201 1218 -1
1201 1441 -1
1201 1442 -1
1201 1457 -1
1201 1458 -1
1201 1473 -1
1201 1474 -1
1202 1202 2.6E1
1202 1203 -1
1202 1217 -1
1202 1218 -1
1202 1219 -1
1202 1441 -1
1202 1442 -1
1202 1443 -1
1202 1457 -1
1202 1458 -1
1202 1459 -1
1202 1473 -1
1202 1474 -1
1202 1475 -1
1203 1203 2.6E1
1203 1204 -1
1203 1218 -1
1203 1219 -1
1203 1220 -1
1203 1442 -1
1203 1443 -1
1203 1444 -1
1203 1458 -1
1203 1459 -1
1203 1460 -1
1203 1474 -1
1203 1475 -1
1203 1476 -1
1204 1204 2.6E1
1204 1205 -1
1204 1219 -1
1204 1220 -1
1204 1221 -1
1204 1443 -1
1204 1444 -1
1204 1445 -1
1204 1459 -1
1204 1460 -1
1204 1461 -1
1204 1475 -1
1204 1476 -1
1204 1477 -1
1205 1205 2.6E1
1205 1206 -1
1205 1220 -1
1205 1221 -1
1205 1222 -1
1205 1444 -1
1205 1445 -1
1205 1446 -1
1205 1460 -1
1205 1461 -1
1205 1462 -1
1205 1476 -1
1205 1477 -1
1205 1478 -1
1206 1206 2.6E1
1206 1207 -1
1206 1221 -1
1206 1222 -1
1206 1223 -1
1206 1445 -1
1206 1446 -1
1206 1447 -1
1206 1461 -1
1206 1462 -1
1206 1463 -1
1206 1477 -1
1206 1478 -1
1206 1479 -1
1207 1207 2.6E1
1207 1208 -1
1207 1222 -1
1207 1223 -1
1207 1224 -1
1207 1446 -1
1207 1447 -1
1207 1448 -1
1207 1462 -1
1207 1463 -1
1207 1464 -1
1207 1478 -1
1207 1479 -1
1207 1480 -1
1208 1208 2.6E1
1208 1209 -1
1208 1223 -1
1208 1224 -1
1208 1225 -1
1208 1447 -1
1208 1448 -1
1208 1449 -1
1208 1463 -1
1208 1464 -1
1208 1465 -1
1208 1479 -1
1208 1480 -1
1208 1481 -1
1209 1209 2.6E1
1209 1210 -1
1209 1224 -1
1209 1225 -1
1209 1226 -1
1209 1448 -1
1209 1449 -1
1209 1450 -1
1209 1464 -1
1209 1465 -1
1209 1466 -1
1209 1480 -1
1209 1481 -1
1209 1482 -1
1210 1210 2.6E1
1210 1211 -1
1210 1225 -1
1210 1226 -1
1210 1227 -1
1210 1449 -1
1210 1450 -1
1210 1451 -1
1210 1465 -1
1210 1466 -1
1210 1467 -1
1210 1481 -1
1210 1482 -1
1210 1483 -1
1211 1211 2.6E1
1211 1212 -1
1211 1226 -1
1211 1227 -1
1211 1228 -1
1211 1450 -1
1211 1451 -1
1211 1452 -1
1211 1466 -1
1211 1467 -1
1211 1468 -1
1211 1482 -1
1211 1483 -1
1211 1484 -1
1212 1212 2.6E1
1212 1213 -1
1212 1227 -1
1212 1228 -1
1212 1229 -1
1212 1451 -1
1212 1452 -1
1212 1453 -1
1212 1467 -1
1212 1468 -1
1212 1469 -1
1212 1483 -1
1212 1484 -1
1212 1485 -1
1213 1213 2.6E1
1213 1214 -1
1213 1228 -1
1213 1229 -1
1213 1230 -1
1213 1452 -1
1213 1453 -1
1213 1454 -1
1213 1468 -1
1213 1469 -1
1213 1470 -1
1213 1484 -1
1213 1485 -1
1213 1486 -1
1214 1214 2.6E1
1214 1215 -1
1214 1229 -1
1214 1230 -1
1214 1231 -1
1214 1453 -1
1214 1454 -1
1214 1455 -1
1214 1469 -1
1214 1470 -1
1214 1471 -1
1214 1485 -1
1214 1486 -1
1214 1487 -1
1215 1215 2.6E1
1215 1216 -1
1215 1230 -1
1215 1231 -1
1215 1232 -1
1215 1454 -1
1215 1455 -1
1215 1456 -1
1215 1470 -1
1215 1471 -1
1215 1472 -1
1215 1486 -1
1215 1487 -1
1215 1488 -1
1216 1216 2.6E1
1216 1231 -1
1216 1232 -1
1216 1455 -1
1216 1456 -1
1216 1471 -1
1216 1472 -1
1216 1487 -1
1216 1488 -1
1217 1217 2.6E1
1217 1218 -1
1217 1233 -1
1217 1234 -1
1217 1457 -1
1217 1458 -1
1217 1473 -1
1217 1474 -1
1217 1489 -1
1217 1490 -1
1218 1218 2.6E1
1218 1219 -1
1218 1233 -1
1218 1234 -1
1218 1235 -1
1218 1457 -1
1218 1458 -1
1218 1459 -1
1218 1473 -1
1218 1474 -1
1218 1475 -1
1218 1489 -1
1218 1490 -1
1218 1491 -1
1219 1219 2.6E1
1219 1220 -1
1219 1234 -1
1219 1235 -1
1219 1236 -1
1219 1458 -1
1219 1459 -1
1219 1460 -1
1219 1474 -1
1219 1475 -1
1219 1476 -1
1219 1490 -1
1219 1491 -1
1219 1492 -1
1220 1220 2.6E1
1220 1221 -1
1220 1235 -1
1220 1236 -1
1220 1237 -1
1220 1459 -1
1220 1460 -1
1220 1461 -1
1220 1475 -1
1220 1476 -1
1220 1477 -1
1220 1491 -1
1220 1492 -1
1220 1493 -1
1221 1221 2.6E1
1221 1222 -1
1221 1236 -1
1221 1237 -1
1221 1238 -1
1221 1460 -1
1221 1461 -1
1221 1462 -1
1221 1476 -1
1221 1477 -1
1221 1478 -1
1221 1492 -1
1221 1493 -1
1221 1494 -1
1222 1222 2.6E1
1222 1223 -1
1222 1237 -1
1222 1238 -1
1222 1239 -1
1222 1461 -1
1222 1462 -1
1222 1463 -1
1222 1477 -1
1222 1478 -1
1222 1479 -1
1222 1493 -1
1222 1494 -1
1222 1495 -1
1223 1223 2.6E1
1223 1224 -1
1223 1238 -1
1223 1239 -1
1223 1240 -1
1223 1462 -1
1223 1463 -1
1223 1464 -1
1223 1478 -1
1223 1479 -1
1223 1480 -1
1223 1494 -1
1223 1495 -1
1223 1496 -1
1224 1224 2.6E1
1224 1225 -1
1224 1239 -1
1224 1240 -1
1224 1241 -1
1224 1463 -1
1224 1464 -1
1224 1465 -1
1224 1479 -1
1224 1480 -1
1224 1481 -1
1224 1495 -1
1224 1496 -1
1224 1497 -1
1225 1225 2.6E1
1225 1226 -1
1225 1240 -1
1225 1241 -1
1225 1242 -1
1225 1464 -1
1225 1465 -1
1225 1466 -1
1225 1480 -1
1225 1481 -1
1225 1482 -1
1225 1496 -1
1225 1497 -1
1225 1498 -1
1226 1226 2.6E1
1226 1227 -1
1226 1241 -1
1226 1242 -1
1226 1243 -1
1226 1465 -1
1226 1466 -1
1226 1467 -1
1226 1481 -1
1226 1482 -1
1226 1483 -1
1226 1497 -1
1226 1498 -1
1226 1499 -1
1227 1227 2.6E1
1227 1228 -1
1227 1242 -1
1227 1243 -1
1227 1244 -1
1227 1466 -1
1227 1467 -1
1227 1468 -1
1227 1482 -1
1227 1483 -1
1227 1484 -1
1227 1498 -1
1227 1499 -1
1227 1500 -1
1228 1228 2.6E1
1228 1229 -1
1228 1243 -1
1228 1244 -1
1228 1245 -1
1228 1467 -1
1228 1468 -1
1228 1469 -1
1228 1483 -1
1228 1484 -1
1228 1485 -1
1228 1499 -1
1228 1500 -1
1228 1501 -1
1229 1229 2.6E1
1229 1230 -1
1229 1244 -1
1229 1245 -1
1229 1246 -1
1229 1468 -1
1229 1469 -1
1229 1470 -1
1229 1484 -1
1229 1485 -1
1229 1486 -1
1229 1500 -1
1229 1501 -1
1229 1502 -1
1230 1230 2.6E1
1230 1231 -1
1230 1245 -1
1230 1246 -1
1230 1247 -1
1230 1469 -1
1230 1470 -1
1230 1471 -1
1230 1485 -1
1230 1486 -1
1230 1487 -1
1230 1501 -1
1230 1502 -1
1230 1503 -1
1231 1231 2.6E1
1231 1232 -1
1231 1246 -1
1231 1247 -1
1231 1248 -1
1231 1470 -1
1231 1471 -1
1231 1472 -1
1231 1486 -1
1231 1487 -1
1231 1488 -1
1231 1502 -1
1231 1503 -1
1231 1504 -1
1232 1232 2.6E1
1232 1247 -1
1232 1248 -1
1232 1471 -1
1232 1472 -1
1232 1487 -1
1232 1488 -1
1232 1503 -1
1232 1504 -1
1233 1233 2.6E1
1233 1234 -1
1233 1249 -1
1233 1250 -1
1233 1473 -1
1233 1474 -1
1233 1489 -1
1233 1490 -1
1233 1505 -1
1233 1506 -1
1234 1234 2.6E1
1234 1235 -1
1234 1249 -1
1234 1250 -1
1234 1251 -1
1234 1473 -1
1234 1474 -1
1234 1475 -1
1234 1489 -1
1234 1490 -1
1234 1491 -1
1234 1505 -1
1234 1506 -1
1234 1507 -1
1235 1235 2.6E1
1235 1236 -1
1235 1250 -1
1235 1251 -1
1235 1252 -1
1235 1474 -1
1235 1475 -1
1235 1476 -1
1235 1490 -1
1235 1491 -1
1235 1492 -1
1235 1506 -1
1235 1507 -1
1235 1508 -1
1236 1236 2.6E1
1236 1237 -1
1236 1251 -1
1236 1252 -1
1236 1253 -1
1236 1475 -1
1236 1476 -1
1236 1477 -1
1236 1491 -1
1236 1492 -1
1236 1493 -1
1236 1507 -1
1236 1508 -1
1236 1509 -1
1237 1237 2.6E1
1237 1238 -1
1237 1252 -1
1237 1253 -1
1237 1254 -1
1237 1476 -1
1237 1477 -1
1237 1478 -1
1237 1492 -1
1237 1493 -1
1237 1494 -1
1237 1508 -1
1237 1509 -1
1237 1510 -1
1238 1238 2.6E1
1238 1239 -1
1238 1253 -1
1238 1254 -1
1238 1255 -1
1238 1477 -1
1238 1478 -1
1238 1479 -1
1238 1493 -1
1238 1494 -1
1238 1495 -1
1238 1509 -1
1238 1510 -1
1238 1511 -1
1239 1239 2.6E1
1239 1240 -1
1239 1254 -1
1239 1255 -1
1239 1256 -1
1239 1478 -1
1239 1479 -1
1239 1480 -1
1239 1494 -1
1239 1495 -1
1239 1496 -1
1239 1510 -1
1239 1511 -1
1239 1512 -1
1240 1240 2.6E1
1240 1241 -1
1240 1255 -1
1240 1256 -1
1240 1257 -1
1240 1479 -1
1240 1480 -1
1240 1481 -1
1240 1495 -1
1240 1496 -1
1240 1497 -1
1240 1511 -1
1240 1512 -1
1240 1513 -1
1241 1241 2.6E1
1241 1242 -1
1241 1256 -1
1241 1257 -1
1241 1258 -1
1241 1480 -1
1241 1481 -1
1241 1482 -1
1241 1496 -1
1241 1497 -1
1241 1498 -1
1241 1512 -1
1241 1513 -1
1241 1514 -1
1242 1242 2.6E1
1242 1243 -1
1242 1257 -1
1242 1258 -1
1242 1259 -1
1242 1481 -1
1242 1482 -1
1242 1483 -1
1242 1497 -1
1242 1498 -1
1242 1499 -1
1242 1513 -1
1242 1514 -1
1242 1515 -1
1243 1243 2.6E1
1243 1244 -1
1243 1258 -1
1243 1259 -1
1243 1260 -1
1243 1482 -1
1243 1483 -1
1243 1484 -1
1243 1498 -1
1243 1499 -1
1243 1500 -1
1243 1514 -1
1243 1515 -1
1243 1516 -1
1244 1244 2.6E1
1244 1245 -1
1244 1259 -1
1244 1260 -1
1244 1261 -1
1244 1483 -1
1244 1484 -1
1244 1485 -1
1244 1499 -1
1244 1500 -1
1244 1501 -1
1244 1515 -1
1244 1516 -1
1244 1517 -1
1245 1245 2.6E1
1245 1246 -1
1245 1260 -1
1245 1261 -1
1245 1262 -1
1245 1484 -1
1245 1485 -1
1245 1486 -1
1245 1500 -1
1245 1501 -1
1245 1502 -1
1245 1516 -1
1245 1517 -1
1245 1518 -1
1246 1246 2.6E1
1246 1247 -1
1246 1261 -1
1246 1262 -1
1246 1263 -1
1246 1485 -1
1246 1486 -1
1246 1487 -1
1246 1501 -1
1246 1502 -1
1246 1503 -1
1246 1517 -1
1246 1518 -1
1246 1519 -1
1247 1247 2.6E1
1247 1248 -1
1247 1262 -1
1247 1263 -1
1247 1264 -1
1247 1486 -1
1247 1487 -1
1247 1488 -1
1247 1502 -1
1247 1503 -1
1247 1504 -1
1247 1518 -1
1247 1519 -1
1247 1520 -1
1248 1248 2.6E1
1248 1263 -1
1248 1264 -1
1248 1487 -1
1248 1488 -1
1248 1503 -1
1248 1504 -1
1248 1519 -1
1248 1520 -1
1249 1249 2.6E1
1249 1250 -1
1249 1265 -1
1249 1266 -1
1249 1489 -1
1249 1490 -1
1249 1505 -1
1249 1506 -1
1249 1521 -1
1249 1522 -1
1250 1250 2.6E1
1250 1251 -1
1250 1265 -1
1250 1266 -1
1250 1267 -1
1250 1489 -1
1250 1490 -1
1250 1491 -1
1250 1505 -1
1250 1506 -1
1250 1507 -1
1250 1521 -1
1250 1522 -1
1250 1523 -1
1251 1251 2.6E1
1251 1252 -1
1251 1266 -1
1251 1267 -1
1251 1268 -1
1251 1490 -1
1251 1491 -1
1251 1492 -1
1251 1506 -1
1251 1507 -1
1251 1508 -1
1251 1522 -1
1251 1523 -1
1251 1524 -1
1252 1252 2.6E1
1252 1253 -1
1252 1267 -1
1252 1268 -1
1252 1269 -1
1252 1491 -1
1252 1492 -1
1252 1493 -1
1252 1507 -1
1252 1508 -1
1252 1509 -1
1252 1523 -1
1252 1524 -1
1252 1525 -1
1253 1253 2.6E1
1253 1254 -1
1253 1268 -1
1253 1269 -1
1253 1270 -1
1253 1492 -1
1253 1493 -1
1253 1494 -1
1253 1508 -1
1253 1509 -1
1253 1510 -1
1253 1524 -1
1253 1525 -1
1253 1526 -1
1254 1254 2.6E1
1254 1255 -1
1254 1269 -1
1254 1270 -1
1254 1271 -1
1254 1493 -1
1254 1494 -1
1254 1495 -1
1254 1509 -1
1254 1510 -1
1254 1511 -1
1254 1525 -1
1254 1526 -1
1254 1527 -1
1255 1255 2.6E1
1255 1256 -1
1255 1270 -1
1255 1271 -1
1255 1272 -1
1255 1494 -1
1255 1495 -1
1255 1496 -1
1255 1510 -1
1255 1511 -1
1255 1512 -1
1255 1526 -1
1255 1527 -1
1255 1528 -1
1256 1256 2.6E1
1256 1257 -1
1256 1271 -1
1256 1272 -1
1256 1273 -1
1256 1495 -1
1256 1496 -1
1256 1497 -1
1256 1511 -1
1256 1512 -1
1256 1513 -1
1256 1527 -1
1256 1528 -1
1256 1529 -1
1257 1257 2.6E1
1257 1258 -1
1257 1272 -1
1257 1273 -1
1257 1274 -1
1257 1496 -1
1257 1497 -1
1257 1498 -1
1257 1512 -1
1257 1513 -1
1257 1514 -1
1257 1528 -1
1257 1529 -1
1257 1530 -1
1258 1258 2.6E1
1258 1259 -1
1258 1273 -1
1258 1274 -1
1258 1275 -1
1258 1497 -1
1258 1498 -1
1258 1499 -1
1258 1513 -1
1258 1514 -1
1258 1515 -1
1258 1529 -1
1258 1530 -1
1258 1531 -1
1259 1259 2.6E1
1259 1260 -1
1259 1274 -1
1259 1275 -1
1259 1276 -1
1259 1498 -1
1259 1499 -1
1259 1500 -1
1259 1514 -1
1259 1515 -1
1259 1516 -1
1259 1530 -1
1259 1531 -1
1259 1532 -1
1260 1260 2.6E1
1260 1261 -1
1260 1275 -1
1260 1276 -1
1260 1277 -1
1260 1499 -1
1260 1500 -1
1260 1501 -1
1260 1515 -1
1260 1516 -1
1260 1517 -1
1260 1531 -1
1260 1532 -1
1260 1533 -1
1261 1261 2.6E1
1261 1262 -1
1261 1276 -1
1261 1277 -1
1261 1278 -1
1261 1500 -1
1261 1501 -1
1261 1502 -1
1261 1516 -1
1261 1517 -1
1261 1518 -1
1261 1532 -1
1261 1533 -1
1261 1534 -1
1262 1262 2.6E1
1262 1263 -1
1262 1277 -1
1262 1278 -1
1262 1279 -1
1262 1501 -1
1262 1502 -1
1262 1503 -1
1262 1517 -1
1262 1518 -1
1262 1519 -1
1262 1533 -1
1262 1534 -1
1262 1535 -1
1263 1263 2.6E1
1263 1264 -1
1263 1278 -1
1263 1279 -1
1263 1280 -1
1263 1502 -1
1263 1503 -1
1263 1504 -1
1263 1518 -1
1263 1519 -1
1263 1520 -1
1263 1534 -1
1263 1535 -1
1263 1536 -1
1264 1264 2.6E1
1264 1279 -1
1264 1280 -1
1264 1503 -1
1264 1504 -1
1264 1519 -1
1264 1520 -1
1264 1535 -1
1264 1536 -1
1265 1265 2.6E1
1265 1266 -1
1265 1505 -1
1265 1506 -1
1265 1521 -1
1265 1522 -1
1266 1266 2.6E1
1266 1267 -1
1266 1505 -1
1266 1506 -1
1266 1507 -1
1266 1521 -1
1266 1522 -1
1266 1523 -1
1267 1267 2.6E1
1267 1268 -1
1267 1506 -1
1267 1507 -1
1267 1508 -1
1267 1522 -1
1267 1523 -1
1267 1524 -1
1268 1268 2.6E1
1268 1269 -1
1268 1507 -1
1268 1508 -1
1268 1509 -1
1268 1523 -1
1268 1524 -1
1268 1525 -1
1269 1269 2.6E1
1269 1270 -1
1269 1508 -1
1269 1509 -1
1269 1510 -1
1269 1524 -1
1269 1525 -1
1269 1526 -1
1270 1270 2.6E1
1270 1271 -1
1270 1509 -1
1270 1510 -1
1270 1511 -1
1270 1525 -1
1270 1526 -1
1270 1527 -1
1271 1271 2.6E1
1271 1272 -1
1271 1510 -1
1271 1511 -1
1271 1512 -1
1271 1526 -1
1271 1527 -1
1271 1528 -1
1272 1272 2.6E1
1272 1273 -1
1272 1511 -1
1272 1512 -1
1272 1513 -1
1272 1527 -1
1272 1528 -1
1272 1529 -1
1273 1273 2.6E1
1273 1274 -1
1273 1512 -1
1273 1513 -1
1273 1514 -1
1273 1528 -1
1273 1529 -1
1273 1530 -1
1274 1274 2.6E1
1274 1275 -1
1274 1513 -1
1274 1514 -1
1274 1515 -1
1274 1529 -1
1274 1530 -1
1274 1531 -1
1275 1275 2.6E1
1275 1276 -1
1275 1514 -1
1275 1515 -1
1275 1516 -1
1275 1530 -1
1275 1531 -1
1275 1532 -1
1276 1276 2.6E1
1276 1277 -1
1276 1515 -1
1276 1516 -1
1276 1517 -1
1276 1531 -1
1276 1532 -1
1276 1533 -1
1277 1277 2.6E1
1277 1278 -1
1277 1516 -1
1277 1517 -1
1277 1518 -1
1277 1532 -1
1277 1533 -1
1277 1534 -1
1278 1278 2.6E1
1278 1279 -1
1278 1517 -1
1278 1518 -1
1278 1519 -1
1278 1533 -1
1278 1534 -1
1278 1535 -1
1279 1279 2.6E1
1279 1280 -1
1279 1518 -1
1279 1519 -1
1279 1520 -1
1279 1534 -1
1279 1535 -1
1279 1536 -1
1280 1280 2.6E1
1280 1519 -1
1280 1520 -1
1280 1535 -1
1280 1536 -1
1281 1281 2.6E1
1281 1282 -1
1281 1297 -1
1281 1298 -1
1281 1537 -1
1281 1538 -1
1281 1553 -1
1281 1554 -1
1282 1282 2.6E1
1282 1283 -1
1282 1297 -1
1282 1298 -1
1282 1299 -1
1282 1537 -1
1282 1538 -1
1282 1539 -1
1282 1553 -1
1282 1554 -1
1282 1555 -1
1283 1283 2.6E1
1283 1284 -1
1283 1298 -1
1283 1299 -1
1283 1300 -1
1283 1538 -1
1283 1539 -1
1283 1540 -1
1283 1554 -1
1283 1555 -1
1283 1556 -1
1284 1284 2.6E1
1284 1285 -1
1284 1299 -1
1284 1300 -1
1284 1301 -1
1284 1539 -1
1284 1540 -1
1284 1541 -1
1284 1555 -1
1284 1556 -1
1284 1557 -1
1285 1285 2.6E1
1285 1286 -1
1285 1300 -1
1285 1301 -1
1285 1302 -1
1285 1540 -1
1285 1541 -1
1285 1542 -1
1285 1556 -1
1285 1557 -1
1285 1558 -1
1286 1286 2.6E1
1286 1287 -1
1286 1301 -1
1286 1302 -1
1286 1303 -1
1286 1541 -1
1286 1542 -1
1286 1543 -1
1286 1557 -1
1286 1558 -1
1286 1559 -1
1287 1287 2.6E1
1287 1288 -1
1287 1302 -1
1287 1303 -1
1287 1304 -1
1287 1542 -1
1287 1543 -1
1287 1544 -1
1287 1558 -1
1287 1559 -1
1287 1560 -1
1288 1288 2.6E1
1288 1289 -1
1288 1303 -1
1288 1304 -1
1288 1305 -1
1288 1543 -1
1288 1544 -1
1288 1545 -1
1288 1559 -1
1288 1560 -1
1288 1561 -1
1289 1289 2.6E1
1289 1290 -1
1289 1304 -1
1289 1305 -1
1289 1306 -1
1289 1544 -1
1289 1545 -1
1289 1546 -1
1289 1560 -1
1289 1561 -1
1289 1562 -1
1290 1290 2.6E1
1290 1291 -1
1290 1305 -1
1290 1306 -1
1290 1307 -1
1290 1545 -1
1290 1546 -1
1290 1547 -1
1290 1561 -1
1290 1562 -1
1290 1563 -1
1291 1291 2.6E1
1291 1292 -1
1291 1306 -1
1291 1307 -1
1291 1308 -1
1291 1546 -1
1291 1547 -1
1291 1548 -1
1291 1562 -1
1291 1563 -1
1291 1564 -1
1292 1292 2.6E1
1292 1293 -1
1292 1307 -1
1292 1308 -1
1292 1309 -1
1292 1547 -1
1292 1548 -1
1292 1549 -1
1292 1563 -1
1292 1564 -1
1292 1565 -1
1293 1293 2.6E1
1293 1294 -1
1293 1308 -1
1293 1309 -1
1293 1310 -1
1293 1548 -1
1293 1549 -1
1293 1550 -1
1293 1564 -1
1293 1565 -1
1293 1566 -1
1294 1294 2.6E1
1294 1295 -1
1294 1309 -1
1294 1310 -1
1294 1311 -1
1294 1549 -1
1294 1550 -1
1294 1551 -1
1294 1565 -1
1294 1566 -1
1294 1567 -1
1295 1295 2.6E1
1295 1296 -1
1295 1310 -1
1295 1311 -1
1295 1312 -1
1295 1550 -1
1295 1551 -1
1295 1552 -1
1295 1566 -1
1295 1567 -1
1295 1568 -1
1296 1296 2.6E1
1296 1311 -1
1296 1312 -1
1296 1551 -1
1296 1552 -1
1296 1567 -1
1296 1568 -1
1297 1297 2.6E1
1297 1298 -1
1297 1313 -1
1297 1314 -1
1297 1537 -1
1297 1538 -1
1297 1553 -1
1297 1554 -1
1297 1569 -1
1297 1570 -1
1298 1298 2.6E1
1298 1299 -1
1298 1313 -1
1298 1314 -1
1298 1315 -1
1298 1537 -1
1298 1538 -1
1298 1539 -1
1298 1553 -1
1298 1554 -1
1298 1555 -1
1298 1569 -1
1298 1570 -1
1298 1571 -1
1299 1299 2.6E1
1299 1300 -1
1299 1314 -1
1299 1315 -1
1299 1316 -1
1299 1538 -1
1299 1539 -1
1299 1540 -1
1299 1554 -1
1299 1555 -1
1299 1556 -1
1299 1570 -1
1299 1571 -1
1299 1572 -1
1300 1300 2.6E1
1300 1301 -1
1300 1315 -1
1300 1316 -1
1300 1317 -1
1300 1539 -1
1300 1540 -1
1300 1541 -1
1300 1555 -1
1300 1556 -1
1300 1557 -1
1300 1571 -1
1300 1572 -1
1300 1573 -1
1301 1301 2.6E1
1301 1302 -1
1301 1316 -1
1301 1317 -1
1301 1318 -1
1301 1540 -1
1301 1541 -1
1301 1542 -1
1301 1556 -1
1301 1557 -1
1301 1558 -1
1301 1572 -1
1301 1573 -1
1301 1574 -1
1302 1302 2.6E1
1302 1303 -1
1302 1317 -1
1302 1318 -1
1302 1319 -1
1302 1541 -1
1302 1542 -1
1302 1543 -1
1302 1557 -1
1302 1558 -1
1302 1559 -1
1302 1573 -1
1302 1574 -1
1302 1575 -1
1303 1303 2.6E1
1303 1304 -1
1303 1318 -1
1303 1319 -1
1303 1320 -1
1303 1542 -1
1303 1543 -1
1303 1544 -1
1303 1558 -1
1303 1559 -1
1303 1560 -1
1303 1574 -1
1303 1575 -1
1303 1576 -1
1304 1304 2.6E1
1304 1305 -1
1304 1319 -1
1304 1320 -1
1304 1321 -1
1304 1543 -1
1304 1544 -1
1304 1545 -1
1304 1559 -1
1304 1560 -1
1304 1561 -1
1304 1575 -1
1304 1576 -1
1304 1577 -1
1305 1305 2.6E1
1305 1306 -1
1305 1320 -1
1305 1321 -1
1305 1322 -1
1305 1544 -1
1305 1545 -1
1305 1546 -1
1305 1560 -1
1305 1561 -1
1305 1562 -1
1305 1576 -1
1305 1577 -1
1305 1578 -1
1306 1306 2.6E1
1306 1307 -1
1306 1321 -1
1306 1322 -1
1306 1323 -1
1306 1545 -1
1306 1546 -1
1306 1547 -1
1306 1561 -1
1306 1562 -1
1306 1563 -1
1306 1577 -1
1306 1578 -1
1306 1579 -1
1307 1307 2.6E1
1307 1308 -1
1307 1322 -1
1307 1323 -1
1307 1324 -1
1307 1546 -1
1307 1547 -1
1307 1548 -1
1307 1562 -1
1307 1563 -1
1307 1564 -1
1307 1578 -1
1307 1579 -1
1307 1580 -1
1308 1308 2.6E1
1308 1309 -1
1308 1323 -1
1308 1324 -1
1308 1325 -1
1308 1547 -1
1308 1548 -1
1308 1549 -1
1308 1563 -1
1308 1564 -1
1308 1565 -1
1308 1579 -1
1308 1580 -1
1308 1581 -1
1309 1309 2.6E1
1309 1310 -1
1309 1324 -1
1309 1325 -1
1309 1326 -1
1309 1548 -1
1309 1549 -1
1309 1550 -1
1309 1564 -1
1309 1565 -1
1309 1566 -1
1309 1580 -1
1309 1581 -1
1309 1582 -1
1310 1310 2.6E1
1310 1311 -1
1310 1325 -1
1310 1326 -1
1310 1327 -1
1310 1549 -1
1310 1550 -1
1310 1551 -1
1310 1565 -1
1310 1566 -1
1310 1567 -1
1310 1581 -1
1310 1582 -1
1310 1583 -1
1311 1311 2.6E1
1311 1312 -1
1311 1326 -1
1311 1327 -1
1311 1328 -1
1311 1550 -1
1311 1551 -1
1311 1552 -1
1311 1566 -1
1311 1567 -1
1311 1568 -1
1311 1582 -1
1311 1583 -1
1311 1584 -1
1312 1312 2.6E1
1312 1327 -1
1312 1328 -1
1312 1551 -1
1312 1552 -1
1312 1567 -1
1312 1568 -1
1312 1583 -1
1312 1584 -1
1313 1313 2.6E1
1313 1314 -1
1313 1329 -1
1313 1330 -1
1313 1553 -1
1313 1554 -1
1313 1569 -1
1313 1570 -1
1313 1585 -1
1313 1586 -1
1314 1314 2.6E1
1314 1315 -1
1314 1329 -1
1314 1330 -1
1314 1331 -1
1314 1553 -1
1314 1554 -1
1314 1555 -1
1314 1569 -1
1314 1570 -1
1314 1571 -1
1314 1585 -1
1314 1586 -1
1314 1587 -1
1315 1315 2.6E1
1315 1316 -1
1315 1330 -1
1315 1331 -1
1315 1332 -1
1315 1554 -1
1315 1555 -1
1315 1556 -1
1315 1570 -1
1315 1571 -1
1315 1572 -1
1315 1586 -1
1315 1587 -1
1315 1588 -1
1316 1316 2.6E1
1316 1317 -1
1316 1331 -1
1316 1332 -1
1316 1333 -1
1316 1555 -1
1316 1556 -1
1316 1557 -1
1316 1571 -1
1316 1572 -1
1316 1573 -1
1316 1587 -1
1316 1588 -1
1316 1589 -1
1317 1317 2.6E1
1317 1318 -1
1317 1332 -1
1317 1333 -1
1317 1334 -1
1317 1556 -1
1317 1557 -1
1317 1558 -1
1317 1572 -1
1317 1573 -1
1317 1574 -1
1317 1588 -1
1317 1589 -1
1317 1590 -1
1318 1318 2.6E1
1318 1319 -1
1318 1333 -1
1318 1334 -1
1318 1335 -1
1318 1557 -1
1318 1558 -1
1318 1559 -1
1318 1573 -1
1318 1574 -1
1318 1575 -1
1318 1589 -1
1318 1590 -1
1318 1591 -1
1319 1319 2.6E1
1319 1320 -1
1319 1334 -1
1319 1335 -1
1319 1336 -1
1319 1558 -1
1319 1559 -1
1319 1560 -1
1319 1574 -1
1319 1575 -1
1319 1576 -1
1319 1590 -1
1319 1591 -1
1319 1592 -1
1320 1320 2.6E1
1320 1321 -1
1320 1335 -1
1320 1336 -1
1320 1337 -1
1320 1559 -1
1320 1560 -1
1320 1561 -1
1320 1575 -1
1320 1576 -1
1320 1577 -1
1320 1591 -1
1320 1592 -1
1320 1593 -1
1321 1321 2.6E1
1321 1322 -1
1321 1336 -1
1321 1337 -1
1321 1338 -1
1321 1560 -1
1321 1561 -1
1321 1562 -1
1321 1576 -1
1321 1577 -1
1321 1578 -1
1321 1592 -1
1321 1593 -1
1321 1594 -1
1322 1322 2.6E1
1322 1323 -1
1322 1337 -1
1322 1338 -1
1322 1339 -1
1322 1561 -1
1322 1562 -1
1322 1563 -1
1322 1577 -1
1322 1578 -1
1322 1579 -1
1322 1593 -1
1322 1594 -1
1322 1595 -1
1323 1323 2.6E1
1323 1324 -1
1323 1338 -1
1323 1339 -1
1323 1340 -1
1323 1562 -1
1323 1563 -1
1323 1564 -1
1323 1578 -1
1323 1579 -1
1323 1580 -1
1323 1594 -1
1323 1595 -1
1323 1596 -1
1324 1324 2.6E1
1324 1325 -1
1324 1339 -1
1324 1340 -1
1324 1341 -1
1324 1563 -1
1324 1564 -1
1324 1565 -1
1324 1579 -1
1324 1580 -1
1324 1581 -1
1324 1595 -1
1324 1596 -1
1324 1597 -1
1325 1325 2.6E1
1325 1326 -1
1325 1340 -1
1325 1341 -1
1325 1342 -1
1325 1564 -1
1325 1565 -1
1325 1566 -1
1325 1580 -1
1325 1581 -1
1325 1582 -1
1325 1596 -1
1325 1597 -1
1325 1598 -1
1326 1326 2.6E1
1326 1327 -1
1326 1341 -1
1326 1342 -1
1326 1343 -1
1326 1565 -1
1326 1566 -1
1326 1567 -1
1326 1581 -1
1326 1582 -1
1326 1583 -1
1326 1597 -1
1326 1598 -1
1326 1599 -1
1327 1327 2.6E1
1327 1328 -1
1327 1342 -1
1327 1343 -1
1327 1344 -1
1327 1566 -1
1327 1567 -1
1327 1568 -1
1327 1582 -1
1327 1583 -1
1327 1584 -1
1327 1598 -1
1327 1599 -1
1327 1600 -1
1328 1328 2.6E1
1328 1343 -1
1328 1344 -1
1328 1567 -1
1328 1568 -1
1328 1583 -1
1328 1584 -1
1328 1599 -1
1328 1600 -1
1329 1329 2.6E1
1329 1330 -1
1329 1345 -1
1329 1346 -1
1329 1569 -1
1329 1570 -1
1329 1585 -1
1329 1586 -1
1329 1601 -1
1329 1602 -1
1330 1330 2.6E1
1330 1331 -1
1330 1345 -1
1330 1346 -1
1330 1347 -1
1330 1569 -1
1330 1570 -1
1330 1571 -1
1330 1585 -1
1330 1586 -1
1330 1587 -1
1330 1601 -1
1330 1602 -1
1330 1603 -1
1331 1331 2.6E1
1331 1332 -1
1331 1346 -1
1331 1347 -1
1331 1348 -1
1331 1570 -1
1331 1571 -1
1331 1572 -1
1331 1586 -1
1331 1587 -1
1331 1588 -1
1331 1602 -1
1331 1603 -1
1331 1604 -1
1332 1332 2.6E1
1332 1333 -1
1332 1347 -1
1332 1348 -1
1332 1349 -1
1332 1571 -1
1332 1572 -1
1332 1573 -1
1332 1587 -1
1332 1588 -1
1332 1589 -1
1332 1603 -1
1332 1604 -1
1332 1605 -1
1333 1333 2.6E1
1333 1334 -1
1333 1348 -1
1333 1349 -1
1333 1350 -1
1333 1572 -1
1333 1573 -1
1333 1574 -1
1333 1588 -1
1333 1589 -1
1333 1590 -1
1333 1604 -1
1333 1605 -1
1333 1606 -1
1334 1334 2.6E1
1334 1335 -1
1334 1349 -1
1334 1350 -1
1334 1351 -1
1334 1573 -1
1334 1574 -1
1334 1575 -1
1334 1589 -1
1334 1590 -1
1334 1591 -1
1334 1605 -1
1334 1606 -1
1334 1607 -1
1335 1335 2.6E1
1335 1336 -1
1335 1350 -1
1335 1351 -1
1335 1352 -1
1335 1574 -1
1335 1575 -1
1335 1576 -1
1335 1590 -1
1335 1591 -1
1335 1592 -1
1335 1606 -1
1335 1607 -1
1335 1608 -1
1336 1336 2.6E1
1336 1337 -1
1336 1351 -1
1336 1352 -1
1336 1353 -1
1336 1575 -1
1336 1576 -1
1336 1577 -1
1336 1591 -1
1336 1592 -1
1336 1593 -1
1336 1607 -1
1336 1608 -1
1336 1609 -1
1337 1337 2.6E1
1337 1338 -1
1337 1352 -1
1337 1353 -1
1337 1354 -1
1337 1576 -1
1337 1577 -1
1337 1578 -1
1337 1592 -1
1337 1593 -1
1337 1594 -1
1337 1608 -1
1337 1609 -1
1337 1610 -1
1338 1338 2.6E1
1338 1339 -1
1338 1353 -1
1338 1354 -1
1338 1355 -1
1338 1577 -1
1338 1578 -1
1338 1579 -1
1338 1593 -1
1338 1594 -1
1338 1595 -1
1338 1609 -1
1338 1610 -1
1338 1611 -1
1339 1339 2.6E1
1339 1340 -1
1339 1354 -1
1339 1355 -1
1339 1356 -1
1339 1578 -1
1339 1579 -1
1339 1580 -1
1339 1594 -1
1339 1595 -1
1339 1596 -1
1339 1610 -1
1339 1611 -1
1339 1612 -1
1340 1340 2.6E1
1340 1341 -1
1340 1355 -1
1340 1356 -1
1340 1357 -1
1340 1579 -1
1340 1580 -1
1340 1581 -1
1340 1595 -1
1340 1596 -1
1340 1597 -1
1340 1611 -1
1340 1612 -1
1340 1613 -1
1341 1341 2.6E1
1341 1342 -1
1341 1356 -1
1341 1357 -1
1341 1358 -1
1341 1580 -1
1341 1581 -1
1341 1582 -1
1341 1596 -1
1341 1597 -1
1341 1598 -1
1341 1612 -1
1341 1613 -1
1341 1614 -1
1342 1342 2.6E1
1342 1343 -1
1342 1357 -1
1342 1358 -1
1342 1359 -1
1342 1581 -1
1342 1582 -1
1342 1583 -1
1342 1597 -1
1342 1598 -1
1342 1599 -1
1342 1613 -1
1342 1614 -1
1342 1615 -1
1343 1343 2.6E1
1343 1344 -1
1343 1358 -1
1343 1359 -1
1343 1360 -1
1343 1582 -1
1343 1583 -1
1343 1584 -1
1343 1598 -1
1343 1599 -1
1343 1600 -1
1343 1614 -1
1343 1615 -1
1343 1616 -1
1344 1344 2.6E1
1344 1359 -1
1344 1360 -1
1344 1583 -1
1344 1584 -1
1344 1599 -1
1344 1600 -1
1344 1615 -1
1344 1616 -1
1345 1345 2.6E1
1345 1346 -1
1345 1361 -1
1345 1362 -1
1345 1585 -1
1345 1586 -1
1345 1601 -1
1345 1602 -1
1345 1617 -1
1345 1618 -1
1346 1346 2.6E1
1346 1347 -1
1346 1361 -1
1346 1362 -1
1346 1363 -1
1346 1585 -1
1346 1586 -1
1346 1587 -1
1346 1601 -1
1346 1602 -1
1346 1603 -1
1346 1617 -1
1346 1618 -1
1346 1619 -1
1347 1347 2.6E1
1347 1348 -1
1347 1362 -1
1347 1363 -1
1347 1364 -1
1347 1586 -1
1347 1587 -1
1347 1588 -1
1347 1602 -1
1347 1603 -1
1347 1604 -1
1347 1618 -1
1347 1619 -1
1347 1620 -1
1348 1348 2.6E1
1348 1349 -1
1348 1363 -1
1348 1364 -1
1348 1365 -1
1348 1587 -1
1348 1588 -1
1348 1589 -1
1348 1603 -1
1348 1604 -1
1348 1605 -1
1348 1619 -1
1348 1620 -1
1348 1621 -1
1349 1349 2.6E1
1349 1350 -1
1349 1364 -1
1349 1365 -1
1349 1366 -1
1349 1588 -1
1349 1589 -1
1349 1590 -1
1349 1604 -1
1349 1605 -1
1349 1606 -1
1349 1620 -1
1349 1621 -1
1349 1622 -1
1350 1350 2.6E1
1350 1351 -1
1350 1365 -1
1350 1366 -1
1350 1367 -1
1350 1589 -1
1350 1590 -1
1350 1591 -1
1350 1605 -1
1350 1606 -1
1350 1607 -1
1350 1621 -1
1350 1622 -1
1350 1623 -1
1351 1351 2.6E1
1351 1352 -1
1351 1366 -1
1351 1367 -1
1351 1368 -1
1351 1590 -1
1351 1591 -1
1351 1592 -1
1351 1606 -1
1351 1607 -1
1351 1608 -1
1351 1622 -1
1351 1623 -1
1351 1624 -1
1352 1352 2.6E1
1352 1353 -1
1352 1367 -1
1352 1368 -1
1352 1369 -1
1352 1591 -1
1352 1592 -1
1352 1593 -1
1352 1607 -1
1352 1608 -1
1352 1609 -1
1352 1623 -1
1352 1624 -1
1352 1625 -1
1353 1353 2.6E1
1353 1354 -1
1353 1368 -1
1353 1369 -1
1353 1370 -1
1353 1592 -1
1353 1593 -1
1353 1594 -1
1353 1608 -1
1353 1609 -1
1353 1610 -1
1353 1624 -1
1353 1625 -1
1353 1626 -1
1354 1354 2.6E1
1354 1355 -1
1354 1369 -1
1354 1370 -1
1354 1371 -1
1354 1593 -1
1354 1594 -1
1354 1595 -1
1354 1609 -1
1354 1610 -1
1354 1611 -1
1354 1625 -1
1354 1626 -1
1354 1627 -1
1355 1355 2.6E1
1355 1356 -1
1355 1370 -1
1355 1371 -1
1355 1372 -1
1355 1594 -1
1355 1595 -1
1355 1596 -1
1355 1610 -1
1355 1611 -1
1355 1612 -1
1355 1626 -1
1355 1627 -1
1355 1628 -1
1356 1356 2.6E1
1356 1357 -1
1356 1371 -1
1356 1372 -1
1356 1373 -1
1356 1595 -1
1356 1596 -1
1356 1597 -1
1356 1611 -1
1356 1612 -1
1356 1613 -1
1356 1627 -1
1356 1628 -1
1356 1629 -1
1357 1357 2.6E1
1357 1358 -1
1357 1372 -1
1357 1373 -1
1357 1374 -1
1357 1596 -1
1357 1597 -1
1357 1598 -1
1357 1612 -1
1357 1613 -1
1357 1614 -1
1357 1628 -1
1357 1629 -1
1357 1630 -1
1358 1358 2.6E1
1358 1359 -1
1358 1373 -1
1358 1374 -1
1358 1375 -1
1358 1597 -1
1358 1598 -1
1358 1599 -1
1358 1613 -1
1358 1614 -1
1358 1615 -1
1358 1629 -1
1358 1630 -1
1358 1631 -1
1359 1359 2.6E1
1359 1360 -1
1359 1374 -1
1359 1375 -1
1359 1376 -1
1359 1598 -1
1359 1599 -1
1359 1600 -1
1359 1614 -1
1359 1615 -1
1359 1616 -1
1359 1630 -1
1359 1631 -1
1359 1632 -1
1360 1360 2.6E1
1360 1375 -1
1360 1376 -1
1360 1599 -1
1360 1600 -1
1360 1615 -1
1360 1616 -1
1360 1631 -1
1360 1632 -1
1361 1361 2.6E1
1361 1362 -1
1361 1377 -1
1361 1378 -1
1361 1601 -1
1361 1602 -1
1361 1617 -1
1361 1618 -1
1361 1633 -1
1361 1634 -1
1362 1362 2.6E1
1362 1363 -1
1362 1377 -1
1362 1378 -1
1362 1379 -1
1362 1601 -1
1362 1602 -1
1362 1603 -1
1362 1617 -1
1362 1618 -1
1362 1619 -1
1362 1633 -1
1362 1634 -1
1362 1635 -1
1363 1363 2.6E1
1363 1364 -1
1363 1378 -1
1363 1379 -1
1363 1380 -1
1363 1602 -1
1363 1603 -1
1363 1604 -1
1363 1618 -1
1363 1619 -1
1363 1620 -1
1363 1634 -1
1363 1635 -1
1363 1636 -1
1364 1364 2.6E1
1364 1365 -1
1364 1379 -1
1364 1380 -1
1364 1381 -1
1364 1603 -1
1364 1604 -1
1364 1605 -1
1364 1619 -1
1364 1620 -1
1364 1621 -1
1364 1635 -1
1364 1636 -1
1364 1637 -1
1365 1365 2.6E1
1365 1366 -1
1365 1380 -1
1365 1381 -1
1365 1382 -1
1365 1604 -1
1365 1605 -1
1365 1606 -1
1365 1620 -1
1365 1621 -1
1365 1622 -1
1365 1636 -1
1365 1637 -1
1365 1638 -1
1366 1366 2.6E1
1366 1367 -1
1366 1381 -1
1366 1382 -1
1366 1383 -1
1366 1605 -1
1366 1606 -1
1366 1607 -1
1366 1621 -1
1366 1622 -1
1366 1623 -1
1366 1637 -1
1366 1638 -1
1366 1639 -1
1367 1367 2.6E1
1367 1368 -1
1367 1382 -1
1367 1383 -1
1367 1384 -1
1367 1606 -1
1367 1607 -1
1367 1608 -1
1367 1622 -1
1367 1623 -1
1367 1624 -1
1367 1638 -1
1367 1639 -1
1367 1640 -1
1368 1368 2.6E1
1368 1369 -1
1368 1383 -1
1368 1384 -1
1368 1385 -1
1368 1607 -1
1368 1608 -1
1368 1609 -1
1368 1623 -1
1368 1624 -1
1368 1625 -1
1368 1639 -1
1368 1640 -1
1368 1641 -1
1369 1369 2.6E1
1369 1370 -1
1369 1384 -1
1369 1385 -1
1369 1386 -1
1369 1608 -1
1369 1609 -1
1369 1610 -1
1369 1624 -1
1369 1625 -1
1369 1626 -1
1369 1640 -1
1369 1641 -1
1369 1642 -1
1370 1370 2.6E1
1370 1371 -1
1370 1385 -1
1370 1386 -1
1370 1387 -1
1370 1609 -1
1370 1610 -1
1370 1611 -1
1370 1625 -1
1370 1626 -1
1370 1627 -1
1370 1641 -1
1370 1642 -1
1370 1643 -1
1371 1371 2.6E1
1371 1372 -1
1371 1386 -1
1371 1387 -1
1371 1388 -1
1371 1610 -1
1371 1611 -1
1371 1612 -1
1371 1626 -1
1371 1627 -1
1371 1628 -1
1371 1642 -1
1371 1643 -1
1371 1644 -1
1372 1372 2.6E1
1372 1373 -1
1372 1387 -1
1372 1388 -1
1372 1389 -1
1372 1611 -1
1372 1612 -1
1372 1613 -1
1372 1627 -1
1372 1628 -1
1372 1629 -1
1372 1643 -1
1372 1644 -1
1372 1645 -1
1373 1373 2.6E1
1373 1374 -1
1373 1388 -1
1373 1389 -1
1373 1390 -1
1373 1612 -1
1373 1613 -1
1373 1614 -1
1373 1628 -1
1373 1629 -1
1373 1630 -1
1373 1644 -1
1373 1645 -1
1373 1646 -1
1374 1374 2.6E1
1374 1375 -1
1374 1389 -1
1374 1390 -1
1374 1391 -1
1374 1613 -1
1374 1614 -1
1374 1615 -1
1374 1629 -1
1374 1630 -1
1374 1631 -1
1374 1645 -1
1374 1646 -1
1374 1647 -1
1375 1375 2.6E1
1375 1376 -1
1375 1390 -1
1375 1391 -1
1375 1392 -1
1375 1614 -1
1375 1615 -1
1375 1616 -1
1375 1630 -1
1375 1631 -1
1375 1632 -1
1375 1646 -1
1375 1647 -1
1375 1648 -1
1376 1376 2.6E1
1376 1391 -1
1376 1392 -1
1376 1615 -1
1376 1616 -1
1376 1631 -1
1376 1632 -1
1376 1647 -1
1376 1648 -1
1377 1377 2.6E1
1377 1378 -1
1377 1393 -1
1377 1394 -1
1377 1617 -1
1377 1618 -1
1377 1633 -1
1377 1634 -1
1377 1649 -1
1377 1650 -1
1378 1378 2.6E1
1378 1379 -1
1378 1393 -1
1378 1394 -1
1378 1395 -1
1378 1617 -1
1378 1618 -1
1378 1619 -1
1378 1633 -1
1378 1634 -1
1378 1635 -1
1378 1649 -1
1378 1650 -1
1378 1651 -1
1379 1379 2.6E1
1379 1380 -1
1379 1394 -1
1379 1395 -1
1379 1396 -1
1379 1618 -1
1379 1619 -1
1379 1620 -1
1379 1634 -1
1379 1635 -1
1379 1636 -1
1379 1650 -1
1379 1651 -1
1379 1652 -1
1380 1380 2.6E1
1380 1381 -1
1380 1395 -1
1380 1396 -1
1380 1397 -1
1380 1619 -1
1380 1620 -1
1380 1621 -1
1380 1635 -1
1380 1636 -1
1380 1637 -1
1380 1651 -1
1380 1652 -1
1380 1653 -1
1381 1381 2.6E1
1381 1382 -1
1381 1396 -1
1381 1397 -1
1381 1398 -1
1381 1620 -1
1381 1621 -1
1381 1622 -1
1381 1636 -1
1381 1637 -1
1381 1638 -1
1381 1652 -1
1381 1653 -1
1381 1654 -1
1382 1382 2.6E1
1382 1383 -1
1382 1397 -1
1382 1398 -1
1382 1399 -1
1382 1621 -1
1382 1622 -1
1382 1623 -1
1382 1637 -1
1382 1638 -1
1382 1639 -1
1382 1653 -1
1382 1654 -1
1382 1655 -1
1383 1383 2.6E1
1383 1384 -1
1383 1398 -1
1383 1399 -1
1383 1400 -1
1383 1622 -1
1383 1623 -1
1383 1624 -1
1383 1638 -1
1383 1639 -1
1383 1640 -1
1383 1654 -1
1383 1655 -1
1383 1656 -1
1384 1384 2.6E1
1384 1385 -1
1384 1399 -1
1384 1400 -1
1384 1401 -1
1384 1623 -1
1384 1624 -1
1384 1625 -1
1384 1639 -1
1384 1640 -1
1384 1641 -1
1384 1655 -1
1384 1656 -1
1384 1657 -1
1385 1385 2.6E1
1385 1386 -1
1385 1400 -1
1385 1401 -1
1385 1402 -1
1385 1624 -1
1385 1625 -1
1385 1626 -1
1385 1640 -1
1385 1641 -1
1385 1642 -1
1385 1656 -1
1385 1657 -1
1385 1658 -1
1386 1386 2.6E1
1386 1387 -1
1386 1401 -1
1386 1402 -1
1386 1403 -1
1386 1625 -1
1386 1626 -1
1386 1627 -1
1386 1641 -1
1386 1642 -1
1386 1643 -1
1386 1657 -1
1386 1658 -1
1386 1659 -1
1387 1387 2.6E1
1387 1388 -1
1387 1402 -1
1387 1403 -1
1387 1404 -1
1387 1626 -1
1387 1627 -1
1387 1628 -1
1387 1642 -1
1387 1643 -1
1387 1644 -1
1387 1658 -1
1387 1659 -1
1387 1660 -1
1388 1388 2.6E1
1388 1389 -1
1388 1403 -1
1388 1404 -1
1388 1405 -1
1388 1627 -1
1388 1628 -1
1388 1629 -1
1388 1643 -1
1388 1644 -1
1388 1645 -1
1388 1659 -1
1388 1660 -1
1388 1661 -1
1389 1389 2.6E1
1389 1390 -1
1389 1404 -1
1389 1405 -1
1389 1406 -1
1389 1628 -1
1389 1629 -1
1389 1630 -1
1389 1644 -1
1389 1645 -1
1389 1646 -1
1389 1660 -1
1389 1661 -1
1389 1662 -1
1390 1390 2.6E1
1390 1391 -1
1390 1405 -1
1390 1406 -1
1390 1407 -1
1390 1629 -1
1390 1630 -1
1390 1631 -1
1390 1645 -1
1390 1646 -1
1390 1647 -1
1390 1661 -1
1390 1662 -1
1390 1663 -1
1391 1391 2.6E1
1391 1392 -1
1391 1406 -1
1391 1407 -1
1391 1408 -1
1391 1630 -1
1391 1631 -1
1391 1632 -1
1391 1646 -1
1391 1647 -1
1391 1648 -1
1391 1662 -1
1391 1663 -1
1391 1664 -1
1392 1392 2.6E1
1392 1407 -1
1392 1408 -1
1392 1631 -1
1392 1632 -1
1392 1647 -1
1392 1648 -1
1392 1663 -1
1392 1664 -1
1393 1393 2.6E1
1393 1394 -1
1393 1409 -1
1393 1410 -1
1393 1633 -1
1393 1634 -1
1393 1649 -1
1393 1650 -1
1393 1665 -1
1393 1666 -1
1394 1394 2.6E1
1394 1395 -1
1394 1409 -1
1394 1410 -1
1394 1411 -1
1394 1633 -1
1394 1634 -1
1394 1635 -1
1394 1649 -1
1394 1650 -1
1394 1651 -1
1394 1665 -1
1394 1666 -1
1394 1667 -1
1395 1395 2.6E1
1395 1396 -1
1395 1410 -1
1395 1411 -1
1395 1412 -1
1395 1634 -1
1395 1635 -1
1395 1636 -1
1395 1650 -1
1395 1651 -1
1395 1652 -1
1395 1666 -1
1395 1667 -1
1395 1668 -1
1396 1396 2.6E1
1396 1397 -1
1396 1411 -1
1396 1412 -1
1396 1413 -1
1396 1635 -1
1396 1636 -1
1396 1637 -1
1396 1651 -1
1396 1652 -1
1396 1653 -1
1396 1667 -1
1396 1668 -1
1396 1669 -1
1397 1397 2.6E1
1397 1398 -1
1397 1412 -1
1397 1413 -1
1397 1414 -1
1397 1636 -1
1397 1637 -1
1397 1638 -1
1397 1652 -1
1397 1653 -1
1397 1654 -1
1397 1668 -1
1397 1669 -1
1397 1670 -1
1398 1398 2.6E1
1398 1399 -1
1398 1413 -1
1398 1414 -1
1398 1415 -1
1398 1637 -1
1398 1638 -1
1398 1639 -1
1398 1653 -1
1398 1654 -1
1398 1655 -1
1398 1669 -1
1398 1670 -1
1398 1671 -1
1399 1399 2.6E1
1399 1400 -1
1399 1414 -1
1399 1415 -1
1399 1416 -1
1399 1638 -1
1399 1639 -1
1399 1640 -1
1399 1654 -1
1399 1655 -1
1399 1656 -1
1399 1670 -1
1399 1671 -1
1399 1672 -1
1400 1400 2.6E1
1400 1401 -1
1400 1415 -1
1400 1416 -1
1400 1417 -1
1400 1639 -1
1400 1640 -1
1400 1641 -1
1400 1655 -1
1400 1656 -1
1400 1657 -1
1400 1671 -1
1400 1672 -1
1400 1673 -1
1401 1401 2.6E1
1401 1402 -1
1401 1416 -1
1401 1417 -1
1401 1418 -1
1401 1640 -1
1401 1641 -1
1401 1642 -1
1401 1656 -1
1401 1657 -1
1401 1658 -1
1401 1672 -1
1401 1673 -1
1401 1674 -1
1402 1402 2.6E1
1402 1403 -1
1402 1417 -1
1402 1418 -1
1402 1419 -1
1402 1641 -1
1402 1642 -1
1402 1643 -1
1402 1657 -1
1402 1658 -1
1402 1659 -1
1402 1673 -1
1402 1674 -1
1402 1675 -1
1403 1403 2.6E1
1403 1404 -1
1403 1418 -1
1403 1419 -1
1403 1420 -1
1403 1642 -1
1403 1643 -1
1403 1644 -1
1403 1658 -1
1403 1659 -1
1403 1660 -1
1403 1674 -1
1403 1675 -1
1403 1676 -1
1404 1404 2.6E1
1404 1405 -1
1404 1419 -1
1404 1420 -1
1404 1421 -1
1404 1643 -1
1404 1644 -1
1404 1645 -1
1404 1659 -1
1404 1660 -1
1404 1661 -1
1404 1675 -1
1404 1676 -1
1404 1677 -1
1405 1405 2.6E1
1405 1406 -1
1405 1420 -1
1405 1421 -1
1405 1422 -1
1405 1644 -1
1405 1645 -1
1405 1646 -1
1405 1660 -1
1405 1661 -1
1405 1662 -1
1405 1676 -1
1405 1677 -1
1405 1678 -1
1406 1406 2.6E1
1406 1407 -1
1406 1421 -1
1406 1422 -1
1406 1423 -1
1406 1645 -1
1406 1646 -1
1406 1647 -1
1406 1661 -1
1406 1662 -1
1406 1663 -1
1406 1677 -1
1406 1678 -1
1406 1679 -1
1407 1407 2.6E1
1407 1408 -1
1407 1422 -1
1407 1423 -1
1407 1424 -1
1407 1646 -1
1407 1647 -1
1407 1648 -1
1407 1662 -1
1407 1663 -1
1407 1664 -1
1407 1678 -1
1407 1679 -1
1407 1680 -1
1408 1408 2.6E1
1408 1423 -1
1408 1424 -1
1408 1647 -1
1408 1648 -1
1408 1663 -1
1408 1664 -1
1408 1679 -1
1408 1680 -1
1409 1409 2.6E1
1409 1410 -1
1409 1425 -1
1409 1426 -1
1409 1649 -1
1409 1650 -1
1409 1665 -1
1409 1666 -1
1409 1681 -1
1409 1682 -1
1410 1410 2.6E1
1410 1411 -1
1410 1425 -1
1410 1426 -1
1410 1427 -1
1410 1649 -1
1410 1650 -1
1410 1651 -1
1410 1665 -1
1410 1666 -1
1410 1667 -1
1410 1681 -1
1410 1682 -1
1410 1683 -1
1411 1411 2.6E1
1411 1412 -1
1411 1426 -1
1411 1427 -1
1411 1428 -1
1411 1650 -1
1411 1651 -1
1411 1652 -1
1411 1666 -1
1411 1667 -1
1411 1668 -1
1411 1682 -1
1411 1683 -1
1411 1684 -1
1412 1412 2.6E1
1412 1413 -1
1412 1427 -1
1412 1428 -1
1412 1429 -1
1412 1651 -1
1412 1652 -1
1412 1653 -1
1412 1667 -1
1412 1668 -1
1412 1669 -1
1412 1683 -1
1412 1684 -1
1412 1685 -1
1413 1413 2.6E1
1413 1414 -1
1413 1428 -1
1413 1429 -1
1413 1430 -1
1413 1652 -1
1413 1653 -1
1413 1654 -1
1413 1668 -1
1413 1669 -1
1413 1670 -1
1413 1684 -1
1413 1685 -1
1413 1686 -1
1414 1414 2.6E1
1414 1415 -1
1414 1429 -1
1414 1430 -1
1414 1431 -1
1414 1653 -1
1414 1654 -1
1414 1655 -1
1414 1669 -1
1414 1670 -1
1414 1671 -1
1414 1685 -1
1414 1686 -1
1414 1687 -1
1415 1415 2.6E1
1415 1416 -1
1415 1430 -1
1415 1431 -1
1415 1432 -1
1415 1654 -1
1415 1655 -1
1415 1656 -1
1415 1670 -1
1415 1671 -1
1415 1672 -1
1415 1686 -1
1415 1687 -1
1415 1688 -1
1416 1416 2.6E1
1416 1417 -1
1416 1431 -1
1416 1432 -1
1416 1433 -1
1416 1655 -1
1416 1656 -1
1416 1657 -1
1416 1671 -1
1416 1672 -1
1416 1673 -1
1416 1687 -1
1416 1688 -1
1416 1689 -1
1417 1417 2.6E1
1417 1418 -1
1417 1432 -1
1417 1433 -1
1417 1434 -1
1417 1656 -1
1417 1657 -1
1417 1658 -1
1417 1672 -1
1417 1673 -1
1417 1674 -1
1417 1688 -1
1417 1689 -1
1417 1690 -1
1418 1418 2.6E1
1418 1419 -1
1418 1433 -1
1418 1434 -1
1418 1435 -1
1418 1657 -1
1418 1658 -1
1418 1659 -1
1418 1673 -1
1418 1674 -1
1418 1675 -1
1418 1689 -1
1418 1690 -1
1418 1691 -1
1419 1419 2.6E1
1419 1420 -1
1419 1434 -1
1419 1435 -1
1419 1436 -1
1419 1658 -1
1419 1659 -1
1419 1660 -1
1419 1674 -1
1419 1675 -1
1419 1676 -1
1419 1690 -1
1419 1691 -1
1419 1692 -1
1420 1420 2.6E1
1420 1421 -1
1420 1435 -1
1420 1436 -1
1420 1437 -1
1420 1659 -1
1420 1660 -1
1420 1661 -1
1420 1675 -1
1420 1676 -1
1420 1677 -1
1420 1691 -1
1420 1692 -1
1420 1693 -1
1421 1421 2.6E1
1421 1422 -1
1421 1436 -1
1421 1437 -1
1421 1438 -1
1421 1660 -1
1421 1661 -1
1421 1662 -1
1421 1676 -1
1421 1677 -1
1421 1678 -1
1421 1692 -1
1421 1693 -1
1421 1694 -1
1422 1422 2.6E1
1422 1423 -1
1422 1437 -1
1422 1438 -1
1422 1439 -1
1422 1661 -1
1422 1662 -1
1422 1663 -1
1422 1677 -1
1422 1678 -1
1422 1679 -1
1422 1693 -1
1422 1694 -1
1422 1695 -1
1423 1423 2.6E1
1423 1424 -1
1423 1438 -1
1423 1439 -1
1423 1440 -1
1423 1662 -1
1423 1663 -1
1423 1664 -1
1423 1678 -1
1423 1679 -1
1423 1680 -1
1423 1694 -1
1423 1695 -1
1423 1696 -1
1424 1424 2.6E1
1424 1439 -1
1424 1440 -1
1424 1663 -1
1424 1664 -1
1424 1679 -1
1424 1680 -1
1424 1695 -1
1424 1696 -1
1425 1425 2.6E1
1425 1426 -1
1425 1441 -1
1425 1442 -1
1425 1665 -1
1425 1666 -1
1425 1681 -1
1425 1682 -1
1425 1697 -1
1425 1698 -1
1426 1426 2.6E1
1426 1427 -1
1426 1441 -1
1426 1442 -1
1426 1443 -1
1426 1665 -1
1426 1666 -1
1426 1667 -1
1426 1681 -1
1426 1682 -1
1426 1683 -1
1426 1697 -1
1426 1698 -1
1426 1699 -1
1427 1427 2.6E1
1427 1428 -1
1427 1442 -1
1427 1443 -1
1427 1444 -1
1427 1666 -1
1427 1667 -1
1427 1668 -1
1427 1682 -1
1427 1683 -1
1427 1684 -1
1427 1698 -1
1427 1699 -1
1427 1700 -1
1428 1428 2.6E1
1428 1429 -1
1428 1443 -1
1428 1444 -1
1428 1445 -1
1428 1667 -1
1428 1668 -1
1428 1669 -1
1428 1683 -1
1428 1684 -1
1428 1685 -1
1428 1699 -1
1428 1700 -1
1428 1701 -1
1429 1429 2.6E1
1429 1430 -1
1429 1444 -1
1429 1445 -1
1429 1446 -1
1429 1668 -1
1429 1669 -1
1429 1670 -1
1429 1684 -1
1429 1685 -1
1429 1686 -1
1429 1700 -1
1429 1701 -1
1429 1702 -1
1430 1430 2.6E1
1430 1431 -1
1430 1445 -1
1430 1446 -1
1430 1447 -1
1430 1669 -1
1430 1670 -1
1430 1671 -1
1430 1685 -1
1430 1686 -1
1430 1687 -1
1430 1701 -1
1430 1702 -1
1430 1703 -1
1431 1431 2.6E1
1431 1432 -1
1431 1446 -1
1431 1447 -1
1431 1448 -1
1431 1670 -1
1431 1671 -1
1431 1672 -1
1431 1686 -1
1431 1687 -1
1431 1688 -1
1431 1702 -1
1431 1703 -1
1431 1704 -1
1432 1432 2.6E1
1432 1433 -1
1432 1447 -1
1432 1448 -1
1432 1449 -1
1432 1671 -1
1432 1672 -1
1432 1673 -1
1432 1687 -1
1432 1688 -1
1432 1689 -1
1432 1703 -1
1432 1704 -1
1432 1705 -1
1433 1433 2.6E1
1433 1434 -1
1433 1448 -1
1433 1449 -1
1433 1450 -1
1433 1672 -1
1433 1673 -1
1433 1674 -1
1433 1688 -1
1433 1689 -1
1433 1690 -1
1433 1704 -1
1433 1705 -1
1433 1706 -1
1434 1434 2.6E1
1434 1435 -1
1434 1449 -1
1434 1450 -1
1434 1451 -1
1434 1673 -1
1434 1674 -1
1434 1675 -1
1434 1689 -1
1434 1690 -1
1434 1691 -1
1434 1705 -1
1434 1706 -1
1434 1707 -1
1435 1435 2.6E1
1435 1436 -1
1435 1450 -1
1435 1451 -1
1435 1452 -1
1435 1674 -1
1435 1675 -1
1435 1676 -1
1435 1690 -1
1435 1691 -1
1435 1692 -1
1435 1706 -1
1435 1707 -1
1435 1708 -1
1436 1436 2.6E1
1436 1437 -1
1436 1451 -1
1436 1452 -1
1436 1453 -1
1436 1675 -1
1436 1676 -1
1436 1677 -1
1436 1691 -1
1436 1692 -1
1436 1693 -1
1436 1707 -1
1436 1708 -1
1436 1709 -1
1437 1437 2.6E1
1437 1438 -1
1437 1452 -1
1437 1453 -1
1437 1454 -1
1437 1676 -1
1437 1677 -1
1437 1678 -1
1437 1692 -1
1437 1693 -1
1437 1694 -1
1437 1708 -1
1437 1709 -1
1437 1710 -1
1438 1438 2.6E1
1438 1439 -1
1438 1453 -1
1438 1454 -1
1438 1455 -1
1438 1677 -1
1438 1678 -1
1438 1679 -1
1438 1693 -1
1438 1694 -1
1438 1695 -1
1438 1709 -1
1438 1710 -1
1438 1711 -1
1439 1439 2.6E1
1439 1440 -1
1439 1454 -1
1439 1455 -1
1439 1456 -1
1439 1678 -1
1439 1679 -1
1439 1680 -1
1439 1694 -1
1439 1695 -1
1439 1696 -1
1439 1710 -1
1439 1711 -1
1439 1712 -1
1440 1440 2.6E1
1440 1455 -1
1440 1456 -1
1440 1679 -1
1440 1680 -1
1440 1695 -1
1440 1696 -1
1440 1711 -1
1440 1712 -1
1441 1441 2.6E1
1441 1442 -1
1441 1457 -1
1441 1458 -1
1441 1681 -1
1441 1682 -1
1441 1697 -1
1441 1698 -1
1441 1713 -1
1441 1714 -1
1442 1442 2.6E1
1442 1443 -1
1442 1457 -1
1442 1458 -1
1442 1459 -1
1442 1681 -1
1442 1682 -1
1442 1683 -1
1442 1697 -1
1442 1698 -1
1442 1699 -1
1442 1713 -1
1442 1714 -1
1442 1715 -1
1443 1443 2.6E1
1443 1444 -1
1443 1458 -1
1443 1459 -1
1443 1460 -1
1443 1682 -1
1443 1683 -1
1443 1684 -1
1443 1698 -1
1443 1699 -1
1443 1700 -1
1443 1714 -1
1443 1715 -1
1443 1716 -1
1444 1444 2.6E1
1444 1445 -1
1444 1459 -1
1444 1460 -1
1444 1461 -1
1444 1683 -1
1444 1684 -1
1444 1685 -1
1444 1699 -1
1444 1700 -1
1444 1701 -1
1444 1715 -1
1444 1716 -1
1444 1717 -1
1445 1445 2.6E1
1445 1446 -1
1445 1460 -1
1445 1461 -1
1445 1462 -1
1445 1684 -1
1445 1685 -1
1445 1686 -1
1445 1700 -1
1445 1701 -1
1445 1702 -1
1445 1716 -1
1445 1717 -1
1445 1718 -1
1446 1446 2.6E1
1446 1447 -1
1446 1461 -1
1446 1462 -1
1446 1463 -1
1446 1685 -1
1446 1686 -1
1446 1687 -1
1446 1701 -1
1446 1702 -1
1446 1703 -1
1446 1717 -1
1446 1718 -1
1446 1719 -1
1447 1447 2.6E1
1447 1448 -1
1447 1462 -1
1447 1463 -1
1447 1464 -1
1447 1686 -1
1447 1687 -1
1447 1688 -1
1447 1702 -1
1447 1703 -1
1447 1704 -1
1447 1718 -1
1447 1719 -1
1447 1720 -1
1448 1448 2.6E1
1448 1449 -1
1448 1463 -1
1448 1464 -1
1448 1465 -1
1448 1687 -1
1448 1688 -1
1448 1689 -1
1448 1703 -1
1448 1704 -1
1448 1705 -1
1448 1719 -1
1448 1720 -1
1448 1721 -1
1449 1449 2.6E1
1449 1450 -1
1449 1464 -1
1449 1465 -1
1449 1466 -1
1449 1688 -1
1449 1689 -1
1449 1690 -1
1449 1704 -1
1449 1705 -1
1449 1706 -1
1449 1720 -1
1449 1721 -1
1449 1722 -1
1450 1450 2.6E1
1450 1451 -1
1450 1465 -1
1450 1466 -1
1450 1467 -1
1450 1689 -1
1450 1690 -1
1450 1691 -1
1450 1705 -1
1450 1706 -1
1450 1707 -1
1450 1721 -1
1450 1722 -1
1450 1723 -1
1451 1451 2.6E1
1451 1452 -1
1451 1466 -1
1451 1467 -1
1451 1468 -1
1451 1690 -1
1451 1691 -1
1451 1692 -1
1451 1706 -1
1451 1707 -1
1451 1708 -1
1451 1722 -1
1451 1723 -1
1451 1724 -1
1452 1452 2.6E1
1452 1453 -1
1452 1467 -1
1452 1468 -1
1452 1469 -1
1452 1691 -1
1452 1692 -1
1452 1693 -1
1452 1707 -1
1452 1708 -1
1452 1709 -1
1452 1723 -1
1452 1724 -1
1452 1725 -1
1453 1453 2.6E1
1453 1454 -1
1453 1468 -1
1453 1469 -1
1453 1470 -1
1453 1692 -1
1453 1693 -1
1453 1694 -1
1453 1708 -1
1453 1709 -1
1453 1710 -1
1453 1724 -1
1453 1725 -1
1453 1726 -1
1454 1454 2.6E1
1454 1455 -1
1454 1469 -1
1454 1470 -1
1454 1471 -1
1454 1693 -1
1454 1694 -1
1454 1695 -1
1454 1709 -1
1454 1710 -1
1454 1711 -1
1454 1725 -1
1454 1726 -1
1454 1727 -1
1455 1455 2.6E1
1455 1456 -1
1455 1470 -1
1455 1471 -1
1455 1472 -1
1455 1694 -1
1455 1695 -1
1455 1696 -1
1455 1710 -1
1455 1711 -1
1455 1712 -1
1455 1726 -1
1455 1727 -1
1455 1728 -1
1456 1456 2.6E1
1456 1471 -1
1456 1472 -1
1456 1695 -1
1456 1696 -1
1456 1711 -1
1456 1712 -1
1456 1727 -1
1456 1728 -1
1457 1457 2.6E1
1457 1458 -1
1457 1473 -1
1457 1474 -1
1457 1697 -1
1457 1698 -1
1457 1713 -1
1457 1714 -1
1457 1729 -1
1457 1730 -1
1458 1458 2.6E1
1458 1459 -1
1458 1473 -1
1458 1474 -1
1458 1475 -1
1458 1697 -1
1458 1698 -1
1458 1699 -1
1458 1713 -1
1458 1714 -1
1458 1715 -1
1458 1729 -1
1458 1730 -1
1458 1731 -1
1459 1459 2.6E1
1459 1460 -1
1459 1474 -1
1459 1475 -1
1459 1476 -1
1459 1698 -1
1459 1699 -1
1459 1700 -1
1459 1714 -1
1459 1715 -1
1459 1716 -1
1459 1730 -1
1459 1731 -1
1459 1732 -1
1460 1460 2.6E1
1460 1461 -1
1460 1475 -1
1460 1476 -1
1460 1477 -1
1460 1699 -1
1460 1700 -1
1460 1701 -1
1460 1715 -1
1460 1716 -1
1460 1717 -1
1460 1731 -1
1460 1732 -1
1460 1733 -1
1461 1461 2.6E1
1461 1462 -1
1461 1476 -1
1461 1477 -1
1461 1478 -1
1461 1700 -1
1461 1701 -1
1461 1702 -1
1461 1716 -1
1461 1717 -1
1461 1718 -1
1461 1732 -1
1461 1733 -1
1461 1734 -1
1462 1462 2.6E1
1462 1463 -1
1462 1477 -1
1462 1478 -1
1462 1479 -1
1462 1701 -1
1462 1702 -1
1462 1703 -1
1462 1717 -1
1462 1718 -1
1462 1719 -1
1462 1733 -1
1462 1734 -1
1462 1735 -1
1463 1463 2.6E1
1463 1464 -1
1463 1478 -1
1463 1479 -1
1463 1480 -1
1463 1702 -1
1463 1703 -1
1463 1704 -1
1463 1718 -1
1463 1719 -1
1463 1720 -1
1463 1734 -1
1463 1735 -1
1463 1736 -1
1464 1464 2.6E1
1464 1465 -1
1464 1479 -1
1464 1480 -1
1464 1481 -1
1464 1703 -1
1464 1704 -1
1464 1705 -1
1464 1719 -1
1464 1720 -1
1464 1721 -1
1464 1735 -1
1464 1736 -1
1464 1737 -1
1465 1465 2.6E1
1465 1466 -1
1465 1480 -1
1465 1481 -1
1465 1482 -1
1465 1704 -1
1465 1705 -1
1465 1706 -1
1465 1720 -1
1465 1721 -1
1465 1722 -1
1465 1736 -1
1465 1737 -1
1465 1738 -1
1466 1466 2.6E1
1466 1467 -1
1466 1481 -1
1466 1482 -1
1466 1483 -1
1466 1705 -1
1466 1706 -1
1466 1707 -1
1466 1721 -1
1466 1722 -1
1466 1723 -1
1466 1737 -1
1466 1738 -1
1466 1739 -1
1467 1467 2.6E1
1467 1468 -1
1467 1482 -1
1467 1483 -1
1467 1484 -1
1467 1706 -1
1467 1707 -1
1467 1708 -1
1467 1722 -1
1467 1723 -1
1467 1724 -1
1467 1738 -1
1467 1739 -1
1467 1740 -1
1468 1468 2.6E1
1468 1469 -1
1468 1483 -1
1468 1484 -1
1468 1485 -1
1468 1707 -1
1468 1708 -1
1468 1709 -1
1468 1723 -1
1468 1724 -1
1468 1725 -1
1468 1739 -1
1468 1740 -1
1468 1741 -1
1469 1469 2.6E1
1469 1470 -1
1469 1484 -1
1469 1485 -1
1469 1486 -1
1469 1708 -1
1469 1709 -1
1469 1710 -1
1469 1724 -1
1469 1725 -1
1469 1726 -1
1469 1740 -1
1469 1741 -1
1469 1742 -1
1470 1470 2.6E1
1470 1471 -1
1470 1485 -1
1470 1486 -1
1470 1487 -1
1470 1709 -1
1470 1710 -1
1470 1711 -1
1470 1725 -1
1470 1726 -1
1470 1727 -1
1470 1741 -1
1470 1742 -1
1470 1743 -1
1471 1471 2.6E1
1471 1472 -1
1471 1486 -1
1471 1487 -1
1471 1488 -1
1471 1710 -1
1471 1711 -1
1471 1712 -1
1471 1726 -1
1471 1727 -1
1471 1728 -1
1471 1742 -1
1471 1743 -1
1471 1744 -1
1472 1472 2.6E1
1472 1487 -1
1472 1488 -1
1472 1711 -1
1472 1712 -1
1472 1727 -1
1472 1728 -1
1472 1743 -1
1472 1744 -1
1473 1473 2.6E1
1473 1474 -1
1473 1489 -1
1473 1490 -1
1473 1713 -1
1473 1714 -1
1473 1729 -1
1473 1730 -1
1473 1745 -1
1473 1746 -1
1474 1474 2.6E1
1474 1475 -1
1474 1489 -1
1474 1490 -1
1474 1491 -1
1474 1713 -1
1474 1714 -1
1474 1715 -1
1474 1729 -1
1474 1730 -1
1474 1731 -1
1474 1745 -1
1474 1746 -1
1474 1747 -1
1475 1475 2.6E1
1475 1476 -1
1475 1490 -1
1475 1491 -1
1475 1492 -1
1475 1714 -1
1475 1715 -1
1475 1716 -1
1475 1730 -1
1475 1731 -1
1475 1732 -1
1475 1746 -1
1475 1747 -1
1475 1748 -1
1476 1476 2.6E1
1476 1477 -1
1476 1491 -1
1476 1492 -1
1476 1493 -1
1476 1715 -1
1476 1716 -1
1476 1717 -1
1476 1731 -1
1476 1732 -1
1476 1733 -1
1476 1747 -1
1476 1748 -1
1476 1749 -1
1477 1477 2.6E1
1477 1478 -1
1477 1492 -1
1477 1493 -1
1477 1494 -1
1477 1716 -1
1477 1717 -1
1477 1718 -1
1477 1732 -1
1477 1733 -1
1477 1734 -1
1477 1748 -1
1477 1749 -1
1477 1750 -1
1478 1478 2.6E1
1478 1479 -1
1478 1493 -1
1478 1494 -1
1478 1495 -1
1478 1717 -1
1478 1718 -1
1478 1719 -1
1478 1733 -1
1478 1734 -1
1478 1735 -1
1478 1749 -1
1478 1750 -1
1478 1751 -1
1479 1479 2.6E1
1479 1480 -1
1479 1494 -1
1479 1495 -1
1479 1496 -1
1479 1718 -1
1479 1719 -1
1479 1720 -1
1479 1734 -1
1479 1735 -1
1479 1736 -1
1479 1750 -1
1479 1751 -1
1479 1752 -1
1480 1480 2.6E1
1480 1481 -1
1480 1495 -1
1480 1496 -1
1480 1497 -1
1480 1719 -1
1480 1720 -1
1480 1721 -1
1480 1735 -1
1480 1736 -1
1480 1737 -1
1480 1751 -1
1480 1752 -1
1480 1753 -1
1481 1481 2.6E1
1481 1482 -1
1481 1496 -1
1481 1497 -1
1481 1498 -1
1481 1720 -1
1481 1721 -1
1481 1722 -1
1481 1736 -1
1481 1737 -1
1481 1738 -1
1481 1752 -1
1481 1753 -1
1481 1754 -1
1482 1482 2.6E1
1482 1483 -1
1482 1497 -1
1482 1498 -1
1482 1499 -1
1482 1721 -1
1482 1722 -1
1482 1723 -1
1482 1737 -1
1482 1738 -1
1482 1739 -1
1482 1753 -1
1482 1754 -1
1482 1755 -1
1483 1483 2.6E1
1483 1484 -1
1483 1498 -1
1483 1499 -1
1483 1500 -1
1483 1722 -1
1483 1723 -1
1483 1724 -1
1483 1738 -1
1483 1739 -1
1483 1740 -1
1483 1754 -1
1483 1755 -1
1483 1756 -1
1484 1484 2.6E1
1484 1485 -1
1484 1499 -1
1484 1500 -1
1484 1501 -1
1484 1723 -1
1484 1724 -1
1484 1725 -1
1484 1739 -1
1484 1740 -1
1484 1741 -1
1484 1755 -1
1484 1756 -1
1484 1757 -1
1485 1485 2.6E1
1485 1486 -1
1485 1500 -1
1485 1501 -1
1485 1502 -1
1485 1724 -1
1485 1725 -1
1485 1726 -1
1485 1740 -1
1485 1741 -1
1485 1742 -1
1485 1756 -1
1485 1757 -1
1485 1758 -1
1486 1486 2.6E1
1486 1487 -1
1486 1501 -1
1486 1502 -1
1486 1503 -1
1486 1725 -1
1486 1726 -1
1486 1727 -1
1486 1741 -1
1486 1742 -1
1486 1743 -1
1486 1757 -1
1486 1758 -1
1486 1759 -1
1487 1487 2.6E1
1487 1488 -1
1487 1502 -1
1487 1503 -1
1487 1504 -1
1487 1726 -1
1487 1727 -1
1487 1728 -1
1487 1742 -1
1487 1743 -1
1487 1744 -1
1487 1758 -1
1487 1759 -1
1487 1760 -1
1488 1488 2.6E1
1488 1503 -1
1488 1504 -1
1488 1727 -1
1488 1728 -1
1488 1743 -1
1488 1744 -1
1488 1759 -1
1488 1760 -1
1489 1489 2.6E1
1489 1490 -1
1489 1505 -1
1489 1506 -1
1489 1729 -1
1489 1730 -1
1489 1745 -1
1489 1746 -1
1489 1761 -1
1489 1762 -1
1490 1490 2.6E1
1490 1491 -1
1490 1505 -1
1490 1506 -1
1490 1507 -1
1490 1729 -1
1490 1730 -1
1490 1731 -1
1490 1745 -1
1490 1746 -1
1490 1747 -1
1490 1761 -1
1490 1762 -1
1490 1763 -1
1491 1491 2.6E1
1491 1492 -1
1491 1506 -1
1491 1507 -1
1491 1508 -1
1491 1730 -1
1491 1731 -1
1491 1732 -1
1491 1746 -1
1491 1747 -1
1491 1748 -1
1491 1762 -1
1491 1763 -1
1491 1764 -1
1492 1492 2.6E1
1492 1493 -1
1492 1507 -1
1492 1508 -1
1492 1509 -1
1492 1731 -1
1492 1732 -1
1492 1733 -1
1492 1747 -1
1492 1748 -1
1492 1749 -1
1492 1763 -1
1492 1764 -1
1492 1765 -1
1493 1493 2.6E1
1493 1494 -1
1493 1508 -1
1493 1509 -1
1493 1510 -1
1493 1732 -1
1493 1733 -1
1493 1734 -1
1493 1748 -1
1493 1749 -1
1493 1750 -1
1493 1764 -1
1493 1765 -1
1493 1766 -1
1494 1494 2.6E1
1494 1495 -1
1494 1509 -1
1494 1510 -1
1494 1511 -1
1494 1733 -1
1494 1734 -1
1494 1735 -1
1494 1749 -1
1494 1750 -1
1494 1751 -1
1494 1765 -1
1494 1766 -1
1494 1767 -1
1495 1495 2.6E1
1495 1496 -1
1495 1510 -1
1495 1511 -1
1495 1512 -1
1495 1734 -1
1495 1735 -1
1495 1736 -1
1495 1750 -1
1495 1751 -1
1495 1752 -1
1495 1766 -1
1495 1767 -1
1495 1768 -1
1496 1496 2.6E1
1496 1497 -1
1496 1511 -1
1496 1512 -1
1496 1513 -1
1496 1735 -1
1496 1736 -1
1496 1737 -1
1496 1751 -1
1496 1752 -1
1496 1753 -1
1496 1767 -1
1496 1768 -1
1496 1769 -1
1497 1497 2.6E1
1497 1498 -1
1497 1512 -1
1497 1513 -1
1497 1514 -1
1497 1736 -1
1497 1737 -1
1497 1738 -1
1497 1752 -1
1497 1753 -1
1497 1754 -1
1497 1768 -1
1497 1769 -1
1497 1770 -1
1498 1498 2.6E1
1498 1499 -1
1498 1513 -1
1498 1514 -1
1498 1515 -1
1498 1737 -1
1498 1738 -1
1498 1739 -1
1498 1753 -1
1498 1754 -1
1498 1755 -1
1498 1769 -1
1498 1770 -1
1498 1771 -1
1499 1499 2.6E1
1499 1500 -1
1499 1514 -1
1499 1515 -1
1499 1516 -1
1499 1738 -1
1499 1739 -1
1499 1740 -1
1499 1754 -1
1499 1755 -1
1499 1756 -1
1499 1770 -1
1499 1771 -1
1499 1772 -1
1500 1500 2.6E1
1500 1501 -1
1500 1515 -1
1500 1516 -1
1500 1517 -1
1500 1739 -1
1500 1740 -1
1500 1741 -1
1500 1755 -1
1500 1756 -1
1500 1757 -1
1500 1771 -1
1500 1772 -1
1500 1773 -1
1501 1501 2.6E1
1501 1502 -1
1501 1516 -1
1501 1517 -1
1501 1518 -1
1501 1740 -1
1501 1741 -1
1501 1742 -1
1501 1756 -1
1501 1757 -1
1501 1758 -1
1501 1772 -1
1501 1773 -1
1501 1774 -1
1502 1502 2.6E1
1502 1503 -1
1502 1517 -1
1502 1518 -1
1502 1519 -1
1502 1741 -1
1502 1742 -1
1502 1743 -1
1502 1757 -1
1502 1758 -1
1502 1759 -1
1502 1773 -1
1502 1774 -1
1502 1775 -1
1503 1503 2.6E1
1503 1504 -1
1503 1518 -1
1503 1519 -1
1503 1520 -1
1503 1742 -1
1503 1743 -1
1503 1744 -1
1503 1758 -1
1503 1759 -1
1503 1760 -1
1503 1774 -1
1503 1775 -1
1503 1776 -1
1504 1504 2.6E1
1504 1519 -1
1504 1520 -1
1504 1743 -1
1504 1744 -1
1504 1759 -1
1504 1760 -1
1504 1775 -1
1504 1776 -1
1505 1505 2.6E1
1505 1506 -1
1505 1521 -1
1505 1522 -1
1505 1745 -1
1505 1746 -1
1505 1761 -1
1505 1762 -1
1505 1777 -1
1505 1778 -1
1506 1506 2.6E1
1506 1507 -1
1506 1521 -1
1506 1522 -1
1506 1523 -1
1506 1745 -1
1506 1746 -1
1506 1747 -1
1506 1761 -1
1506 1762 -1
1506 1763 -1
1506 1777 -1
1506 1778 -1
1506 1779 -1
1507 1507 2.6E1
1507 1508 -1
1507 1522 -1
1507 1523 -1
1507 1524 -1
1507 1746 -1
1507 1747 -1
1507 1748 -1
1507 1762 -1
1507 1763 -1
1507 1764 -1
1507 1778 -1
1507 1779 -1
1507 1780 -1
1508 1508 2.6E1
1508 1509 -1
1508 1523 -1
1508 1524 -1
1508 1525 -1
1508 1747 -1
1508 1748 -1
1508 1749 -1
1508 1763 -1
1508 1764 -1
1508 1765 -1
1508 1779 -1
1508 1780 -1
1508 1781 -1
1509 1509 2.6E1
1509 1510 -1
1509 1524 -1
1509 1525 -1
1509 1526 -1
1509 1748 -1
1509 1749 -1
1509 1750 -1
1509 1764 -1
1509 1765 -1
1509 1766 -1
1509 1780 -1
1509 1781 -1
1509 1782 -1
1510 1510 2.6E1
1510 1511 -1
1510 1525 -1
1510 1526 -1
1510 1527 -1
1510 1749 -1
1510 1750 -1
1510 1751 -1
1510 1765 -1
1510 1766 -1
1510 1767 -1
1510 1781 -1
1510 1782 -1
1510 1783 -1
1511 1511 2.6E1
1511 1512 -1
1511 1526 -1
1511 1527 -1
1511 1528 -1
1511 1750 -1
1511 1751 -1
1511 1752 -1
1511 1766 -1
1511 1767 -1
1511 1768 -1
1511 1782 -1
1511 1783 -1
1511 1784 -1
1512 1512 2.6E1
1512 1513 -1
1512 1527 -1
1512 1528 -1
1512 1529 -1
1512 1751 -1
1512 1752 -1
1512 1753 -1
1512 1767 -1
1512 1768 -1
1512 1769 -1
1512 1783 -1
1512 1784 -1
1512 1785 -1
1513 1513 2.6E1
1513 1514 -1
1513 1528 -1
1513 1529 -1
1513 1530 -1
1513 1752 -1
1513 1753 -1
1513 1754 -1
1513 1768 -1
1513 1769 -1
1513 1770 -1
1513 1784 -1
1513 1785 -1
1513 1786 -1
1514 1514 2.6E1
1514 1515 -1
1514 1529 -1
1514 1530 -1
1514 1531 -1
1514 1753 -1
1514 1754 -1
1514 1755 -1
1514 1769 -1
1514 1770 -1
1514 1771 -1
1514 1785 -1
1514 1786 -1
1514 1787 -1
1515 1515 2.6E1
1515 1516 -1
1515 1530 -1
1515 1531 -1
1515 1532 -1
1515 1754 -1
1515 1755 -1
1515 1756 -1
1515 1770 -1
1515 1771 -1
1515 1772 -1
1515 1786 -1
1515 1787 -1
1515 1788 -1
1516 1516 2.6E1
1516 1517 -1
1516 1531 -1
1516 1532 -1
1516 1533 -1
1516 1755 -1
1516 1756 -1
1516 1757 -1
1516 1771 -1
1516 1772 -1
1516 1773 -1
1516 1787 -1
1516 1788 -1
1516 1789 -1
1517 1517 2.6E1
1517 1518 -1
1517 1532 -1
1517 1533 -1
1517 1534 -1
1517 1756 -1
1517 1757 -1
1517 1758 -1
1517 1772 -1
1517 1773 -1
1517 1774 -1
1517 1788 -1
1517 1789 -1
1517 1790 -1
1518 1518 2.6E1
1518 1519 -1
1518 1533 -1
1518 1534 -1
1518 1535 -1
1518 1757 -1
1518 1758 -1
1518 1759 -1
1518 1773 -1
1518 1774 -1
1518 1775 -1
1518 1789 -1
1518 1790 -1
1518 1791 -1
1519 1519 2.6E1
1519 1520 -1
1519 1534 -1
1519 1535 -1
1519 1536 -1
1519 1758 -1
1519 1759 -1
1519 1760 -1
1519 1774 -1
1519 1775 -1
1519 1776 -1
1519 1790 -1
1519 1791 -1
1519 1792 -1
1520 1520 2.6E1
1520 1535 -1
1520 1536 -1
1520 1759 -1
1520 1760 -1
1520 1775 -1
1520 1776 -1
1520 1791 -1
1520 1792 -1
1521 1521 2.6E1
1521 1522 -1
1521 1761 -1
1521 1762 -1
1521 1777 -1
1521 1778 -1
1522 1522 2.6E1
1522 1523 -1
1522 1761 -1
1522 1762 -1
1522 1763 -1
1522 1777 -1
1522 1778 -1
1522 1779 -1
1523 1523 2.6E1
1523 1524 -1
1523 1762 -1
1523 1763 -1
1523 1764 -1
1523 1778 -1
1523 1779 -1
1523 1780 -1
1524 1524 2.6E1
1524 1525 -1
1524 1763 -1
1524 1764 -1
1524 1765 -1
1524 1779 -1
1524 1780 -1
1524 1781 -1
1525 1525 2.6E1
1525 1526 -1
1525 1764 -1
1525 1765 -1
1525 1766 -1
1525 1780 -1
1525 1781 -1
1525 1782 -1
1526 1526 2.6E1
1526 1527 -1
1526 1765 -1
1526 1766 -1
1526 1767 -1
1526 1781 -1
1526 1782 -1
1526 1783 -1
1527 1527 2.6E1
1527 1528 -1
1527 1766 -1
1527 1767 -1
1527 1768 -1
1527 1782 -1
1527 1783 -1
1527 1784 -1
1528 1528 2.6E1
1528 1529 -1
1528 1767 -1
1528 1768 -1
1528 1769 -1
1528 1783 -1
1528 1784 -1
1528 1785 -1
1529 1529 2.6E1
1529 1530 -1
1529 1768 -1
1529 1769 -1
1529 1770 -1
1529 1784 -1
1529 1785 -1
1529 1786 -1
1530 1530 2.6E1
1530 1531 -1
1530 1769 -1
1530 1770 -1
1530 1771 -1
1530 1785 -1
1530 1786 -1
1530 1787 -1
1531 1531 2.6E1
1531 1532 -1
1531 1770 -1
1531 1771 -1
1531 1772 -1
1531 1786 -1
1531 1787 -1
1531 1788 -1
1532 1532 2.6E1
1532 1533 -1
1532 1771 -1
1532 1772 -1
1532 1773 -1
1532 1787 -1
1532 1788 -1
1532 1789 -1
1533 1533 2.6E1
1533 1534 -1
1533 1772 -1
1533 1773 -1
1533 1774 -1
1533 1788 -1
1533 1789 -1
1533 1790 -1
1534 1534 2.6E1
1534 1535 -1
1534 1773 -1
1534 1774 -1
1534 1775 -1
1534 1789 -1
1534 1790 -1
1534 1791 -1
1535 1535 2.6E1
1535 1536 -1
1535 1774 -1
1535 1775 -1
1535 1776 -1
1535 1790 -1
1535 1791 -1
1535 1792 -1
1536 1536 2.6E1
1536 1775 -1
1536 1776 -1
1536 1791 -1
1536 1792 -1
1537 1537 2.6E1
1537 1538 -1
1537 1553 -1
1537 1554 -1
1537 1793 -1
1537 1794 -1
1537 1809 -1
1537 1810 -1
1538 1538 2.6E1
1538 1539 -1
1538 1553 -1
1538 1554 -1
1538 1555 -1
1538 1793 -1
1538 1794 -1
1538 1795 -1
1538 1809 -1
1538 1810 -1
1538 1811 -1
1539 1539 2.6E1
1539 1540 -1
1539 1554 -1
1539 1555 -1
1539 1556 -1
1539 1794 -1
1539 1795 -1
1539 1796 -1
1539 1810 -1
1539 1811 -1
1539 1812 -1
1540 1540 2.6E1
1540 1541 -1
1540 1555 -1
1540 1556 -1
1540 1557 -1
1540 1795 -1
1540 1796 -1
1540 1797 -1
1540 1811 -1
1540 1812 -1
1540 1813 -1
1541 1541 2.6E1
1541 1542 -1
1541 1556 -1
1541 1557 -1
1541 1558 -1
1541 1796 -1
1541 1797 -1
1541 1798 -1
1541 1812 -1
1541 1813 -1
1541 1814 -1
1542 1542 2.6E1
1542 1543 -1
1542 1557 -1
1542 1558 -1
1542 1559 -1
1542 1797 -1
1542 1798 -1
1542 1799 -1
1542 1813 -1
1542 1814 -1
1542 1815 -1
1543 1543 2.6E1
1543 1544 -1
1543 1558 -1
1543 1559 -1
1543 1560 -1
1543 1798 -1
1543 1799 -1
1543 1800 -1
1543 1814 -1
1543 1815 -1
1543 1816 -1
1544 1544 2.6E1
1544 1545 -1
1544 1559 -1
1544 1560 -1
1544 1561 -1
1544 1799 -1
1544 1800 -1
1544 1801 -1
1544 1815 -1
1544 1816 -1
1544 1817 -1
1545 1545 2.6E1
1545 1546 -1
1545 1560 -1
1545 1561 -1
1545 1562 -1
1545 1800 -1
1545 1801 -1
1545 1802 -1
1545 1816 -1
1545 1817 -1
1545 1818 -1
1546 1546 2.6E1
1546 1547 -1
1546 1561 -1
1546 1562 -1
1546 1563 -1
1546 1801 -1
1546 1802 -1
1546 1803 -1
1546 1817 -1
1546 1818 -1
1546 1819 -1
1547 1547 2.6E1
1547 1548 -1
1547 1562 -1
1547 1563 -1
1547 1564 -1
1547 1802 -1
1547 1803 -1
1547 1804 -1
1547 1818 -1
1547 1819 -1
1547 1820 -1
1548 1548 2.6E1
1548 1549 -1
1548 1563 -1
1548 1564 -1
1548 1565 -1
1548 1803 -1
1548 1804 -1
1548 1805 -1
1548 1819 -1
1548 1820 -1
1548 1821 -1
1549 1549 2.6E1
1549 1550 -1
1549 1564 -1
1549 1565 -1
1549 1566 -1
1549 1804 -1
1549 1805 -1
1549 1806 -1
1549 1820 -1
1549 1821 -1
1549 1822 -1
1550 1550 2.6E1
1550 1551 -1
1550 1565 -1
1550 1566 -1
1550 1567 -1
1550 1805 -1
1550 1806 -1
1550 1807 -1
1550 1821 -1
1550 1822 -1
1550 1823 -1
1551 1551 2.6E1
1551 1552 -1
1551 1566 -1
1551 1567 -1
1551 1568 -1
1551 1806 -1
1551 1807 -1
1551 1808 -1
1551 1822 -1
1551 1823 -1
1551 1824 -1
1552 1552 2.6E1
1552 1567 -1
1552 1568 -1
1552 1807 -1
1552 1808 -1
1552 1823 -1
1552 1824 -1
1553 1553 2.6E1
1553 1554 -1
1553 1569 -1
1553 1570 -1
1553 1793 -1
1553 1794 -1
1553 1809 -1
1553 1810 -1
1553 1825 -1
1553 1826 -1
1554 1554 2.6E1
1554 1555 -1
1554 1569 -1
1554 1570 -1
1554 1571 -1
1554 1793 -1
1554 1794 -1
1554 1795 -1
1554 1809 -1
1554 1810 -1
1554 1811 -1
1554 1825 -1
1554 1826 -1
1554 1827 -1
1555 1555 2.6E1
1555 1556 -1
1555 1570 -1
1555 1571 -1
1555 1572 -1
1555 1794 -1
1555 1795 -1
1555 1796 -1
1555 1810 -1
1555 1811 -1
1555 1812 -1
1555 1826 -1
1555 1827 -1
1555 1828 -1
1556 1556 2.6E1
1556 1557 -1
1556 1571 -1
1556 1572 -1
1556 1573 -1
1556 1795 -1
1556 1796 -1
1556 1797 -1
1556 1811 -1
1556 1812 -1
1556 1813 -1
1556 1827 -1
1556 1828 -1
1556 1829 -1
1557 1557 2.6E1
1557 1558 -1
1557 1572 -1
1557 1573 -1
1557 1574 -1
1557 1796 -1
1557 1797 -1
1557 1798 -1
1557 1812 -1
1557 1813 -1
1557 1814 -1
1557 1828 -1
1557 1829 -1
1557 1830 -1
1558 1558 2.6E1
1558 1559 -1
1558 1573 -1
1558 1574 -1
1558 1575 -1
1558 1797 -1
1558 1798 -1
1558 1799 -1
1558 1813 -1
1558 1814 -1
1558 1815 -1
1558 1829 -1
1558 1830 -1
1558 1831 -1
1559 1559 2.6E1
1559 1560 -1
1559 1574 -1
1559 1575 -1
1559 1576 -1
1559 1798 -1
1559 1799 -1
1559 1800 -1
1559 1814 -1
1559 1815 -1
1559 1816 -1
1559 1830 -1
1559 1831 -1
1559 1832 -1
1560 1560 2.6E1
1560 1561 -1
1560 1575 -1
1560 1576 -1
1560 1577 -1
1560 1799 -1
1560 1800 -1
1560 1801 -1
1560 1815 -1
1560 1816 -1
1560 1817 -1
1560 1831 -1
1560 1832 -1
1560 1833 -1
1561 1561 2.6E1
1561 1562 -1
1561 1576 -1
1561 1577 -1
1561 1578 -1
1561 1800 -1
1561 1801 -1
1561 1802 -1
1561 1816 -1
1561 1817 -1
1561 1818 -1
1561 1832 -1
1561 1833 -1
1561 1834 -1
1562 1562 2.6E1
1562 1563 -1
1562 1577 -1
1562 1578 -1
1562 1579 -1
1562 1801 -1
1562 1802 -1
1562 1803 -1
1562 1817 -1
1562 1818 -1
1562 1819 -1
1562 1833 -1
1562 1834 -1
1562 1835 -1
1563 1563 2.6E1
1563 1564 -1
1563 1578 -1
1563 1579 -1
1563 1580 -1
1563 1802 -1
1563 1803 -1
1563 1804 -1
1563 1818 -1
1563 1819 -1
1563 1820 -1
1563 1834 -1
1563 1835 -1
1563 1836 -1
1564 1564 2.6E1
1564 1565 -1
1564 1579 -1
1564 1580 -1
1564 1581 -1
1564 1803 -1
1564 1804 -1
1564 1805 -1
1564 1819 -1
1564 1820 -1
1564 1821 -1
1564 1835 -1
1564 1836 -1
1564 1837 -1
1565 1565 2.6E1
1565 1566 -1
1565 1580 -1
1565 1581 -1
1565 1582 -1
1565 1804 -1
1565 1805 -1
1565 1806 -1
1565 1820 -1
1565 1821 -1
1565 1822 -1
1565 1836 -1
1565 1837 -1
1565 1838 -1
1566 1566 2.6E1
1566 1567 -1
1566 1581 -1
1566 1582 -1
1566 1583 -1
1566 1805 -1
1566 1806 -1
1566 1807 -1
1566 1821 -1
1566 1822 -1
1566 1823 -1
1566 1837 -1
1566 1838 -1
1566 1839 -1
1567 1567 2.6E1
1567 1568 -1
1567 1582 -1
1567 1583 -1
1567 1584 -1
1567 1806 -1
1567 1807 -1
1567 1808 -1
1567 1822 -1
1567 1823 -1
1567 1824 -1
1567 1838 -1
1567 1839 -1
1567 1840 -1
1568 1568 2.6E1
1568 1583 -1
1568 1584 -1
1568 1807 -1
1568 1808 -1
1568 1823 -1
1568 1824 -1
1568 1839 -1
1568 1840 -1
1569 1569 2.6E1
1569 1570 -1
1569 1585 -1
1569 1586 -1
1569 1809 -1
1569 1810 -1
1569 1825 -1
1569 1826 -1
1569 1841 -1
1569 1842 -1
1570 1570 2.6E1
1570 1571 -1
1570 1585 -1
1570 1586 -1
1570 1587 -1
1570 1809 -1
1570 1810 -1
1570 1811 -1
1570 1825 -1
1570 1826 -1
1570 1827 -1
1570 1841 -1
1570 1842 -1
1570 1843 -1
1571 1571 2.6E1
1571 1572 -1
1571 1586 -1
1571 1587 -1
1571 1588 -1
1571 1810 -1
1571 1811 -1
1571 1812 -1
1571 1826 -1
1571 1827 -1
1571 1828 -1
1571 1842 -1
1571 1843 -1
1571 1844 -1
1572 1572 2.6E1
1572 1573 -1
1572 1587 -1
1572 1588 -1
1572 1589 -1
1572 1811 -1
1572 1812 -1
1572 1813 -1
1572 1827 -1
1572 1828 -1
1572 1829 -1
1572 1843 -1
1572 1844 -1
1572 1845 -1
1573 1573 2.6E1
1573 1574 -1
1573 1588 -1
1573 1589 -1
1573 1590 -1
1573 1812 -1
1573 1813 -1
1573 1814 -1
1573 1828 -1
1573 1829 -1
1573 1830 -1
1573 1844 -1
1573 1845 -1
1573 1846 -1
1574 1574 2.6E1
1574 1575 -1
1574 1589 -1
1574 1590 -1
1574 1591 -1
1574 1813 -1
1574 1814 -1
1574 1815 -1
1574 1829 -1
1574 1830 -1
1574 1831 -1
1574 1845 -1
1574 1846 -1
1574 1847 -1
1575 1575 2.6E1
1575 1576 -1
1575 1590 -1
1575 1591 -1
1575 1592 -1
1575 1814 -1
1575 1815 -1
1575 1816 -1
1575 1830 -1
1575 1831 -1
1575 1832 -1
1575 1846 -1
1575 1847 -1
1575 1848 -1
1576 1576 2.6E1
1576 1577 -1
1576 1591 -1
1576 1592 -1
1576 1593 -1
1576 1815 -1
1576 1816 -1
1576 1817 -1
1576 1831 -1
1576 1832 -1
1576 1833 -1
1576 1847 -1
1576 1848 -1
1576 1849 -1
1577 1577 2.6E1
1577 1578 -1
1577 1592 -1
1577 1593 -1
1577 1594 -1
1577 1816 -1
1577 1817 -1
1577 1818 -1
1577 1832 -1
1577 1833 -1
1577 1834 -1
1577 1848 -1
1577 1849 -1
1577 1850 -1
1578 1578 2.6E1
1578 1579 -1
1578 1593 -1
1578 1594 -1
1578 1595 -1
1578 1817 -1
1578 1818 -1
1578 1819 -1
1578 1833 -1
1578 1834 -1
1578 1835 -1
1578 1849 -1
1578 1850 -1
1578 1851 -1
1579 1579 2.6E1
1579 1580 -1
1579 1594 -1
1579 1595 -1
1579 1596 -1
1579 1818 -1
1579 1819 -1
1579 1820 -1
1579 1834 -1
1579 1835 -1
1579 1836 -1
1579 1850 -1
1579 1851 -1
1579 1852 -1
1580 1580 2.6E1
1580 1581 -1
1580 1595 -1
1580 1596 -1
1580 1597 -1
1580 1819 -1
1580 1820 -1
1580 1821 -1
1580 1835 -1
1580 1836 -1
1580 1837 -1
1580 1851 -1
1580 1852 -1
1580 1853 -1
1581 1581 2.6E1
1581 1582 -1
1581 1596 -1
1581 1597 -1
1581 1598 -1
1581 1820 -1
1581 1821 -1
1581 1822 -1
1581 1836 -1
1581 1837 -1
1581 1838 -1
1581 1852 -1
1581 1853 -1
1581 1854 -1
1582 1582 2.6E1
1582 1583 -1
1582 1597 -1
1582 1598 -1
1582 1599 -1
1582 1821 -1
1582 1822 -1
1582 1823 -1
1582 1837 -1
1582 1838 -1
1582 1839 -1
1582 1853 -1
1582 1854 -1
1582 1855 -1
1583 1583 2.6E1
1583 1584 -1
1583 1598 -1
1583 1599 -1
1583 1600 -1
1583 1822 -1
1583 1823 -1
1583 1824 -1
1583 1838 -1
1583 1839 -1
1583 1840 -1
1583 1854 -1
1583 1855 -1
1583 1856 -1
1584 1584 2.6E1
1584 1599 -1
1584 1600 -1
1584 1823 -1
1584 1824 -1
1584 1839 -1
1584 1840 -1
1584 1855 -1
1584 1856 -1
1585 1585 2.6E1
1585 1586 -1
1585 1601 -1
1585 1602 -1
1585 1825 -1
1585 1826 -1
1585 1841 -1
1585 1842 -1
1585 1857 -1
1585 1858 -1
1586 1586 2.6E1
1586 1587 -1
1586 1601 -1
1586 1602 -1
1586 1603 -1
1586 1825 -1
1586 1826 -1
1586 1827 -1
1586 1841 -1
1586 1842 -1
1586 1843 -1
1586 1857 -1
1586 1858 -1
1586 1859 -1
1587 1587 2.6E1
1587 1588 -1
1587 1602 -1
1587 1603 -1
1587 1604 -1
1587 1826 -1
1587 1827 -1
1587 1828 -1
1587 1842 -1
1587 1843 -1
1587 1844 -1
1587 1858 -1
1587 1859 -1
1587 1860 -1
1588 1588 2.6E1
1588 1589 -1
1588 1603 -1
1588 1604 -1
1588 1605 -1
1588 1827 -1
1588 1828 -1
1588 1829 -1
1588 1843 -1
1588 1844 -1
1588 1845 -1
1588 1859 -1
1588 1860 -1
1588 1861 -1
1589 1589 2.6E1
1589 1590 -1
1589 1604 -1
1589 1605 -1
1589 1606 -1
1589 1828 -1
1589 1829 -1
1589 1830 -1
1589 1844 -1
1589 1845 -1
1589 1846 -1
1589 1860 -1
1589 1861 -1
1589 1862 -1
1590 1590 2.6E1
1590 1591 -1
1590 1605 -1
1590 1606 -1
1590 1607 -1
1590 1829 -1
1590 1830 -1
1590 1831 -1
1590 1845 -1
1590 1846 -1
1590 1847 -1
1590 1861 -1
1590 1862 -1
1590 1863 -1
1591 1591 2.6E1
1591 1592 -1
1591 1606 -1
1591 1607 -1
1591 1608 -1
1591 1830 -1
1591 1831 -1
1591 1832 -1
1591 1846 -1
1591 1847 -1
1591 1848 -1
1591 1862 -1
1591 1863 -1
1591 1864 -1
1592 1592 2.6E1
1592 1593 -1
1592 1607 -1
1592 1608 -1
1592 1609 -1
1592 1831 -1
1592 1832 -1
1592 1833 -1
1592 1847 -1
1592 1848 -1
1592 1849 -1
1592 1863 -1
1592 1864 -1
1592 1865 -1
1593 1593 2.6E1
1593 1594 -1
1593 1608 -1
1593 1609 -1
1593 1610 -1
1593 1832 -1
1593 1833 -1
1593 1834 -1
1593 1848 -1
1593 1849 -1
1593 1850 -1
1593 1864 -1
1593 1865 -1
1593 1866 -1
1594 1594 2.6E1
1594 1595 -1
1594 1609 -1
1594 1610 -1
1594 1611 -1
1594 1833 -1
1594 1834 -1
1594 1835 -1
1594 1849 -1
1594 1850 -1
1594 1851 -1
1594 1865 -1
1594 1866 -1
1594 1867 -1
1595 1595 2.6E1
1595 1596 -1
1595 1610 -1
1595 1611 -1
1595 1612 -1
1595 1834 -1
1595 1835 -1
1595 1836 -1
1595 1850 -1
1595 1851 -1
1595 1852 -1
1595 1866 -1
1595 1867 -1
1595 1868 -1
1596 1596 2.6E1
1596 1597 -1
1596 1611 -1
1596 1612 -1
1596 1613 -1
1596 1835 -1
1596 1836 -1
1596 1837 -1
1596 1851 -1
1596 1852 -1
1596 1853 -1
1596 1867 -1
1596 1868 -1
1596 1869 -1
1597 1597 2.6E1
1597 1598 -1
1597 1612 -1
1597 1613 -1
1597 1614 -1
1597 1836 -1
1597 1837 -1
1597 1838 -1
1597 1852 -1
1597 1853 -1
1597 1854 -1
1597 1868 -1
1597 1869 -1
1597 1870 -1
1598 1598 2.6E1
1598 1599 -1
1598 1613 -1
1598 1614 -1
1598 1615 -1
1598 1837 -1
1598 1838 -1
1598 1839 -1
1598 1853 -1
1598 1854 -1
1598 1855 -1
1598 1869 -1
1598 1870 -1
1598 1871 -1
1599 1599 2.6E1
1599 1600 -1
1599 1614 -1
1599 1615 -1
1599 1616 -1
1599 1838 -1
1599 1839 -1
1599 1840 -1
1599 1854 -1
1599 1855 -1
1599 1856 -1
1599 1870 -1
1599 1871 -1
1599 1872 -1
1600 1600 2.6E1
1600 1615 -1
1600 1616 -1
1600 1839 -1
1600 1840 -1
1600 1855 -1
1600 1856 -1
1600 1871 -1
1600 1872 -1
1601 1601 2.6E1
1601 1602 -1
1601 1617 -1
1601 1618 -1
1601 1841 -1
1601 1842 -1
1601 1857 -1
1601 1858 -1
1601 1873 -1
1601 1874 -1
1602 1602 2.6E1
1602 1603 -1
1602 1617 -1
1602 1618 -1
1602 1619 -1
1602 1841 -1
1602 1842 -1
1602 1843 -1
1602 1857 -1
1602 1858 -1
1602 1859 -1
1602 1873 -1
1602 1874 -1
1602 1875 -1
1603 1603 2.6E1
1603 1604 -1
1603 1618 -1
1603 1619 -1
1603 1620 -1
1603 1842 -1
1603 1843 -1
1603 1844 -1
1603 1858 -1
1603 1859 -1
1603 1860 -1
1603 1874 -1
1603 1875 -1
1603 1876 -1
1604 1604 2.6E1
1604 1605 -1
1604 1619 -1
1604 1620 -1
1604 1621 -1
1604 1843 -1
1604 1844 -1
1604 1845 -1
1604 1859 -1
1604 1860 -1
1604 1861 -1
1604 1875 -1
1604 1876 -1
1604 1877 -1
1605 1605 2.6E1
1605 1606 -1
1605 1620 -1
1605 1621 -1
1605 1622 -1
1605 1844 -1
1605 1845 -1
1605 1846 -1
1605 1860 -1
1605 1861 -1
1605 1862 -1
1605 1876 -1
1605 1877 -1
1605 1878 -1
1606 1606 2.6E1
1606 1607 -1
1606 1621 -1
1606 1622 -1
1606 1623 -1
1606 1845 -1
1606 1846 -1
1606 1847 -1
1606 1861 -1
1606 1862 -1
1606 1863 -1
1606 1877 -1
1606 1878 -1
1606 1879 -1
1607 1607 2.6E1
1607 1608 -1
1607 1622 -1
1607 1623 -1
1607 1624 -1
1607 1846 -1
1607 1847 -1
1607 1848 -1
1607 1862 -1
1607 1863 -1
1607 1864 -1
1607 1878 -1
1607 1879 -1
1607 1880 -1
1608 1608 2.6E1
1608 1609 -1
1608 1623 -1
1608 1624 -1
1608 1625 -1
1608 1847 -1
1608 1848 -1
1608 1849 -1
1608 1863 -1
1608 1864 -1
1608 1865 -1
1608 1879 -1
1608 1880 -1
1608 1881 -1
1609 1609 2.6E1
1609 1610 -1
1609 1624 -1
1609 1625 -1
1609 1626 -1
1609 1848 -1
1609 1849 -1
1609 1850 -1
1609 1864 -1
1609 1865 -1
1609 1866 -1
1609 1880 -1
1609 1881 -1
1609 1882 -1
1610 1610 2.6E1
1610 1611 -1
1610 1625 -1
1610 1626 -1
1610 1627 -1
1610 1849 -1
1610 1850 -1
1610 1851 -1
1610 1865 -1
1610 1866 -1
1610 1867 -1
1610 1881 -1
1610 1882 -1
1610 1883 -1
1611 1611 2.6E1
1611 1612 -1
1611 1626 -1
1611 1627 -1
1611 1628 -1
1611 1850 -1
1611 1851 -1
1611 1852 -1
1611 1866 -1
1611 1867 -1
1611 1868 -1
1611 1882 -1
1611 1883 -1
1611 1884 -1
1612 1612 2.6E1
1612 1613 -1
1612 1627 -1
1612 1628 -1
1612 1629 -1
1612 1851 -1
1612 1852 -1
1612 1853 -1
1612 1867 -1
1612 1868 -1
1612 1869 -1
1612 1883 -1
1612 1884 -1
1612 1885 -1
1613 1613 2.6E1
1613 1614 -1
1613 1628 -1
1613 1629 -1
1613 1630 -1
1613 1852 -1
1613 1853 -1
1613 1854 -1
1613 1868 -1
1613 1869 -1
1613 1870 -1
1613 1884 -1
1613 1885 -1
1613 1886 -1
1614 1614 2.6E1
1614 1615 -1
1614 1629 -1
1614 1630 -1
1614 1631 -1
1614 1853 -1
1614 1854 -1
1614 1855 -1
1614 1869 -1
1614 1870 -1
1614 1871 -1
1614 1885 -1
1614 1886 -1
1614 1887 -1
1615 1615 2.6E1
1615 1616 -1
1615 1630 -1
1615 1631 -1
1615 1632 -1
1615 1854 -1
1615 1855 -1
1615 1856 -1
1615 1870 -1
1615 1871 -1
1615 1872 -1
1615 1886 -1
1615 1887 -1
1615 1888 -1
1616 1616 2.6E1
1616 1631 -1
1616 1632 -1
1616 1855 -1
1616 1856 -1
1616 1871 -1
1616 1872 -1
1616 1887 -1
1616 1888 -1
1617 1617 2.6E1
1617 1618 -1
1617 1633 -1
1617 1634 -1
1617 1857 -1
1617 1858 -1
1617 1873 -1
1617 1874 -1
1617 1889 -1
1617 1890 -1
1618 1618 2.6E1
1618 1619 -1
1618 1633 -1
1618 1634 -1
1618 1635 -1
1618 1857 -1
1618 1858 -1
1618 1859 -1
1618 1873 -1
1618 1874 -1
1618 1875 -1
1618 1889 -1
1618 1890 -1
1618 1891 -1
1619 1619 2.6E1
1619 1620 -1
1619 1634 -1
1619 1635 -1
1619 1636 -1
1619 1858 -1
1619 1859 -1
1619 1860 -1
1619 1874 -1
1619 1875 -1
1619 1876 -1
1619 1890 -1
1619 1891 -1
1619 1892 -1
1620 1620 2.6E1
1620 1621 -1
1620 1635 -1
1620 1636 -1
1620 1637 -1
1620 1859 -1
1620 1860 -1
1620 1861 -1
1620 1875 -1
1620 1876 -1
1620 1877 -1
1620 1891 -1
1620 1892 -1
1620 1893 -1
1621 1621 2.6E1
1621 1622 -1
1621 1636 -1
1621 1637 -1
1621 1638 -1
1621 1860 -1
1621 1861 -1
1621 1862 -1
1621 1876 -1
1621 1877 -1
1621 1878 -1
1621 1892 -1
1621 1893 -1
1621 1894 -1
1622 1622 2.6E1
1622 1623 -1
1622 1637 -1
1622 1638 -1
1622 1639 -1
1622 1861 -1
1622 1862 -1
1622 1863 -1
1622 1877 -1
1622 1878 -1
1622 1879 -1
1622 1893 -1
1622 1894 -1
1622 1895 -1
1623 1623 2.6E1
1623 1624 -1
1623 1638 -1
1623 1639 -1
1623 1640 -1
1623 1862 -1
1623 1863 -1
1623 1864 -1
1623 1878 -1
1623 1879 -1
1623 1880 -1
1623 1894 -1
1623 1895 -1
1623 1896 -1
1624 1624 2.6E1
1624 1625 -1
1624 1639 -1
1624 1640 -1
1624 1641 -1
1624 1863 -1
1624 1864 -1
1624 1865 -1
1624 1879 -1
1624 1880 -1
1624 1881 -1
1624 1895 -1
1624 1896 -1
1624 1897 -1
1625 1625 2.6E1
1625 1626 -1
1625 1640 -1
1625 1641 -1
1625 1642 -1
1625 1864 -1
1625 1865 -1
1625 1866 -1
1625 1880 -1
1625 1881 -1
1625 1882 -1
1625 1896 -1
1625 1897 -1
1625 1898 -1
1626 1626 2.6E1
1626 1627 -1
1626 1641 -1
1626 1642 -1
1626 1643 -1
1626 1865 -1
1626 1866 -1
1626 1867 -1
1626 1881 -1
1626 1882 -1
1626 1883 -1
1626 1897 -1
1626 1898 -1
1626 1899 -1
1627 1627 2.6E1
1627 1628 -1
1627 1642 -1
1627 1643 -1
1627 1644 -1
1627 1866 -1
1627 1867 -1
1627 1868 -1
1627 1882 -1
1627 1883 -1
1627 1884 -1
1627 1898 -1
1627 1899 -1
1627 1900 -1
1628 1628 2.6E1
1628 1629 -1
1628 1643 -1
1628 1644 -1
1628 1645 -1
1628 1867 -1
1628 1868 -1
1628 1869 -1
1628 1883 -1
1628 1884 -1
1628 1885 -1
1628 1899 -1
1628 1900 -1
1628 1901 -1
1629 1629 2.6E1
1629 1630 -1
1629 1644 -1
1629 1645 -1
1629 1646 -1
1629 1868 -1
1629 1869 -1
1629 1870 -1
1629 1884 -1
1629 1885 -1
1629 1886 -1
1629 1900 -1
1629 1901 -1
1629 1902 -1
1630 1630 2.6E1
1630 1631 -1
1630 1645 -1
1630 1646 -1
1630 1647 -1
1630 1869 -1
1630 1870 -1
1630 1871 -1
1630 1885 -1
1630 1886 -1
1630 1887 -1
1630 1901 -1
1630 1902 -1
1630 1903 -1
1631 1631 2.6E1
1631 1632 -1
1631 1646 -1
1631 1647 -1
1631 1648 -1
1631 1870 -1
1631 1871 -1
1631 1872 -1
1631 1886 -1
1631 1887 -1
1631 1888 -1
1631 1902 -1
1631 1903 -1
1631 1904 -1
1632 1632 2.6E1
1632 1647 -1
1632 1648 -1
1632 1871 -1
1632 1872 -1
1632 1887 -1
1632 1888 -1
1632 1903 -1
1632 1904 -1
1633 1633 2.6E1
1633 1634 -1
1633 1649 -1
1633 1650 -1
1633 1873 -1
1633 1874 -1
1633 1889 -1
1633 1890 -1
1633 1905 -1
1633 1906 -1
1634 1634 2.6E1
1634 1635 -1
1634 1649 -1
1634 1650 -1
1634 1651 -1
1634 1873 -1
1634 1874 -1
1634 1875 -1
1634 1889 -1
1634 1890 -1
1634 1891 -1
1634 1905 -1
1634 1906 -1
1634 1907 -1
1635 1635 2.6E1
1635 1636 -1
1635 1650 -1
1635 1651 -1
1635 1652 -1
1635 1874 -1
1635 1875 -1
1635 1876 -1
1635 1890 -1
1635 1891 -1
1635 1892 -1
1635 1906 -1
1635 1907 -1
1635 1908 -1
1636 1636 2.6E1
1636 1637 -1
1636 1651 -1
1636 1652 -1
1636 1653 -1
1636 1875 -1
1636 1876 -1
1636 1877 -1
1636 1891 -1
1636 1892 -1
1636 1893 -1
1636 1907 -1
1636 1908 -1
1636 1909 -1
1637 1637 2.6E1
1637 1638 -1
1637 1652 -1
1637 1653 -1
1637 1654 -1
1637 1876 -1
1637 1877 -1
1637 1878 -1
1637 1892 -1
1637 1893 -1
1637 1894 -1
1637 1908 -1
1637 1909 -1
1637 1910 -1
1638 1638 2.6E1
1638 1639 -1
1638 1653 -1
1638 1654 -1
1638 1655 -1
1638 1877 -1
1638 1878 -1
1638 1879 -1
1638 1893 -1
1638 1894 -1
1638 1895 -1
1638 1909 -1
1638 1910 -1
1638 1911 -1
1639 1639 2.6E1
1639 1640 -1
1639 1654 -1
1639 1655 -1
1639 1656 -1
1639 1878 -1
1639 1879 -1
1639 1880 -1
1639 1894 -1
1639 1895 -1
1639 1896 -1
1639 1910 -1
1639 1911 -1
1639 1912 -1
1640 1640 2.6E1
1640 1641 -1
1640 1655 -1
1640 1656 -1
1640 1657 -1
1640 1879 -1
1640 1880 -1
1640 1881 -1
1640 1895 -1
1640 1896 -1
1640 1897 -1
1640 1911 -1
1640 1912 -1
1640 1913 -1
1641 1641 2.6E1
1641 1642 -1
1641 1656 -1
1641 1657 -1
1641 1658 -1
1641 1880 -1
1641 1881 -1
1641 1882 -1
1641 1896 -1
1641 1897 -1
1641 1898 -1
1641 1912 -1
1641 1913 -1
1641 1914 -1
1642 1642 2.6E1
1642 1643 -1
1642 1657 -1
1642 1658 -1
1642 1659 -1
1642 1881 -1
1642 1882 -1
1642 1883 -1
1642 1897 -1
1642 1898 -1
1642 1899 -1
1642 1913 -1
1642 1914 -1
1642 1915 -1
1643 1643 2.6E1
1643 1644 -1
1643 1658 -1
1643 1659 -1
1643 1660 -1
1643 1882 -1
1643 1883 -1
1643 1884 -1
1643 1898 -1
1643 1899 -1
1643 1900 -1
1643 1914 -1
1643 1915 -1
1643 1916 -1
1644 1644 2.6E1
1644 1645 -1
1644 1659 -1
1644 1660 -1
1644 1661 -1
1644 1883 -1
1644 1884 -1
1644 1885 -1
1644 1899 -1
1644 1900 -1
1644 1901 -1
1644 1915 -1
1644 1916 -1
1644 1917 -1
1645 1645 2.6E1
1645 1646 -1
1645 1660 -1
1645 1661 -1
1645 1662 -1
1645 1884 -1
1645 1885 -1
1645 1886 -1
1645 1900 -1
1645 1901 -1
1645 1902 -1
1645 1916 -1
1645 1917 -1
1645 1918 -1
1646 1646 2.6E1
1646 1647 -1
1646 1661 -1
1646 1662 -1
1646 1663 -1
1646 1885 -1
1646 1886 -1
1646 1887 -1
1646 1901 -1
1646 1902 -1
1646 1903 -1
1646 1917 -1
1646 1918 -1
1646 1919 -1
1647 1647 2.6E1
1647 1648 -1
1647 1662 -1
1647 1663 -1
1647 1664 -1
1647 1886 -1
1647 1887 -1
1647 1888 -1
1647 1902 -1
1647 1903 -1
1647 1904 -1
1647 1918 -1
1647 1919 -1
1647 1920 -1
1648 1648 2.6E1
1648 1663 -1
1648 1664 -1
1648 1887 -1
1648 1888 -1
1648 1903 -1
1648 1904 -1
1648 1919 -1
1648 1920 -1
1649 1649 2.6E1
1649 1650 -1
1649 1665 -1
1649 1666 -1
1649 1889 -1
1649 1890 -1
1649 1905 -1
1649 1906 -1
1649 1921 -1
1649 1922 -1
1650 1650 2.6E1
1650 1651 -1
1650 1665 -1
1650 1666 -1
1650 1667 -1
1650 1889 -1
1650 1890 -1
1650 1891 -1
1650 1905 -1
1650 1906 -1
1650 1907 -1
1650 1921 -1
1650 1922 -1
1650 1923 -1
1651 1651 2.6E1
1651 1652 -1
1651 1666 -1
1651 1667 -1
1651 1668 -1
1651 1890 -1
1651 1891 -1
1651 1892 -1
1651 1906 -1
1651 1907 -1
1651 1908 -1
1651 1922 -1
1651 1923 -1
1651 1924 -1
1652 1652 2.6E1
1652 1653 -1
1652 1667 -1
1652 1668 -1
1652 1669 -1
1652 1891 -1
1652 1892 -1
1652 1893 -1
1652 1907 -1
1652 1908 -1
1652 1909 -1
1652 1923 -1
1652 1924 -1
1652 1925 -1
1653 1653 2.6E1
1653 1654 -1
1653 1668 -1
1653 1669 -1
1653 1670 -1
1653 1892 -1
1653 1893 -1
1653 1894 -1
1653 1908 -1
1653 1909 -1
1653 1910 -1
1653 1924 -1
1653 1925 -1
1653 1926 -1
1654 1654 2.6E1
1654 1655 -1
1654 1669 -1
1654 1670 -1
1654 1671 -1
1654 1893 -1
1654 1894 -1
1654 1895 -1
1654 1909 -1
1654 1910 -1
1654 1911 -1
1654 1925 -1
1654 1926 -1
1654 1927 -1
1655 1655 2.6E1
1655 1656 -1
1655 1670 -1
1655 1671 -1
1655 1672 -1
1655 1894 -1
1655 1895 -1
1655 1896 -1
1655 1910 -1
1655 1911 -1
1655 1912 -1
1655 1926 -1
1655 1927 -1
1655 1928 -1
1656 1656 2.6E1
1656 1657 -1
1656 1671 -1
1656 1672 -1
1656 1673 -1
1656 1895 -1
1656 1896 -1
1656 1897 -1
1656 1911 -1
1656 1912 -1
1656 1913 -1
1656 1927 -1
1656 1928 -1
1656 1929 -1
1657 1657 2.6E1
1657 1658 -1
1657 1672 -1
1657 1673 -1
1657 1674 -1
1657 1896 -1
1657 1897 -1
1657 1898 -1
1657 1912 -1
1657 1913 -1
1657 1914 -1
1657 1928 -1
1657 1929 -1
1657 1930 -1
1658 1658 2.6E1
1658 1659 -1
1658 1673 -1
1658 1674 -1
1658 1675 -1
1658 1897 -1
1658 1898 -1
1658 1899 -1
1658 1913 -1
1658 1914 -1
1658 1915 -1
1658 1929 -1
1658 1930 -1
1658 1931 -1
1659 1659 2.6E1
1659 1660 -1
1659 1674 -1
1659 1675 -1
1659 1676 -1
1659 1898 -1
1659 1899 -1
1659 1900 -1
1659 1914 -1
1659 1915 -1
1659 1916 -1
1659 1930 -1
1659 1931 -1
1659 1932 -1
1660 1660 2.6E1
1660 1661 -1
1660 1675 -1
1660 1676 -1
1660 1677 -1
1660 1899 -1
1660 1900 -1
1660 1901 -1
1660 1915 -1
1660 1916 -1
1660 1917 -1
1660 1931 -1
1660 1932 -1
1660 1933 -1
1661 1661 2.6E1
1661 1662 -1
1661 1676 -1
1661 1677 -1
1661 1678 -1
1661 1900 -1
1661 1901 -1
1661 1902 -1
1661 1916 -1
1661 1917 -1
1661 1918 -1
1661 1932 -1
1661 1933 -1
1661 1934 -1
1662 1662 2.6E1
1662 1663 -1
1662 1677 -1
1662 1678 -1
1662 1679 -1
1662 1901 -1
1662 1902 -1
1662 1903 -1
1662 1917 -1
1662 1918 -1
1662 1919 -1
1662 1933 -1
1662 1934 -1
1662 1935 -1
1663 1663 2.6E1
1663 1664 -1
1663 1678 -1
1663 1679 -1
1663 1680 -1
1663 1902 -1
1663 1903 -1
1663 1904 -1
1663 1918 -1
1663 1919 -1
1663 1920 -1
1663 1934 -1
1663 1935 -1
1663 1936 -1
1664 1664 2.6E1
1664 1679 -1
1664 1680 -1
1664 1903 -1
1664 1904 -1
1664 1919 -1
1664 1920 -1
1664 1935 -1
1664 1936 -1
1665 1665 2.6E1
1665 1666 -1
1665 1681 -1
1665 1682 -1
1665 1905 -1
1665 1906 -1
1665 1921 -1
1665 1922 -1
1665 1937 -1
1665 1938 -1
1666 1666 2.6E1
1666 1667 -1
1666 1681 -1
1666 1682 -1
1666 1683 -1
1666 1905 -1
1666 1906 -1
1666 1907 -1
1666 1921 -1
1666 1922 -1
1666 1923 -1
1666 1937 -1
1666 1938 -1
1666 1939 -1
1667 1667 2.6E1
1667 1668 -1
1667 1682 -1
1667 1683 -1
1667 1684 -1
1667 1906 -1
1667 1907 -1
1667 1908 -1
1667 1922 -1
1667 1923 -1
1667 1924 -1
1667 1938 -1
1667 1939 -1
1667 1940 -1
1668 1668 2.6E1
1668 1669 -1
1668 1683 -1
1668 1684 -1
1668 1685 -1
1668 1907 -1
1668 1908 -1
1668 1909 -1
1668 1923 -1
1668 1924 -1
1668 1925 -1
1668 1939 -1
1668 1940 -1
1668 1941 -1
1669 1669 2.6E1
1669 1670 -1
1669 1684 -1
1669 1685 -1
1669 1686 -1
1669 1908 -1
1669 1909 -1
1669 1910 -1
1669 1924 -1
1669 1925 -1
1669 1926 -1
1669 1940 -1
1669 1941 -1
1669 1942 -1
1670 1670 2.6E1
1670 1671 -1
1670 1685 -1
1670 1686 -1
1670 1687 -1
1670 1909 -1
1670 1910 -1
1670 1911 -1
1670 1925 -1
1670 1926 -1
1670 1927 -1
1670 1941 -1
1670 1942 -1
1670 1943 -1
1671 1671 2.6E1
1671 1672 -1
1671 1686 -1
1671 1687 -1
1671 1688 -1
1671 1910 -1
1671 1911 -1
1671 1912 -1
1671 1926 -1
1671 1927 -1
1671 1928 -1
1671 1942 -1
1671 1943 -1
1671 1944 -1
1672 1672 2.6E1
1672 1673 -1
1672 1687 -1
1672 1688 -1
1672 1689 -1
1672 1911 -1
1672 1912 -1
1672 1913 -1
1672 1927 -1
1672 1928 -1
1672 1929 -1
1672 1943 -1
1672 1944 -1
1672 1945 -1
1673 1673 2.6E1
1673 1674 -1
1673 1688 -1
1673 1689 -1
1673 1690 -1
1673 1912 -1
1673 1913 -1
1673 1914 -1
1673 1928 -1
1673 1929 -1
1673 1930 -1
1673 1944 -1
1673 1945 -1
1673 1946 -1
1674 1674 2.6E1
1674 1675 -1
1674 1689 -1
1674 1690 -1
1674 1691 -1
1674 1913 -1
1674 1914 -1
1674 1915 -1
1674 1929 -1
1674 1930 -1
1674 1931 -1
1674 1945 -1
1674 1946 -1
1674 1947 -1
1675 1675 2.6E1
1675 1676 -1
1675 1690 -1
1675 1691 -1
1675 1692 -1
1675 1914 -1
1675 1915 -1
1675 1916 -1
1675 1930 -1
1675 1931 -1
1675 1932 -1
1675 1946 -1
1675 1947 -1
1675 1948 -1
1676 1676 2.6E1
1676 1677 -1
1676 1691 -1
1676 1692 -1
1676 1693 -1
1676 1915 -1
1676 1916 -1
1676 1917 -1
1676 1931 -1
1676 1932 -1
1676 1933 -1
1676 1947 -1
1676 1948 -1
1676 1949 -1
1677 1677 2.6E1
1677 1678 -1
1677 1692 -1
1677 1693 -1
1677 1694 -1
1677 1916 -1
1677 1917 -1
1677 1918 -1
1677 1932 -1
1677 1933 -1
1677 1934 -1
1677 1948 -1
1677 1949 -1
1677 1950 -1
1678 1678 2.6E1
1678 1679 -1
1678 1693 -1
1678 1694 -1
1678 1695 -1
1678 1917 -1
1678 1918 -1
1678 1919 -1
1678 1933 -1
1678 1934 -1
1678 1935 -1
1678 1949 -1
1678 1950 -1
1678 1951 -1
1679 1679 2.6E1
1679 1680 -1
1679 1694 -1
1679 1695 -1
1679 1696 -1
1679 1918 -1
1679 1919 -1
1679 1920 -1
1679 1934 -1
1679 1935 -1
1679 1936 -1
1679 1950 -1
1679 1951 -1
1679 1952 -1
1680 1680 2.6E1
1680 1695 -1
1680 1696 -1
1680 1919 -1
1680 1920 -1
1680 1935 -1
1680 1936 -1
1680 1951 -1
1680 1952 -1
1681 1681 2.6E1
1681 1682 -1
1681 1697 -1
1681 1698 -1
1681 1921 -1
1681 1922 -1
1681 1937 -1
1681 1938 -1
1681 1953 -1
1681 1954 -1
1682 1682 2.6E1
1682 1683 -1
1682 1697 -1
1682 1698 -1
1682 1699 -1
1682 1921 -1
1682 1922 -1
1682 1923 -1
1682 1937 -1
1682 1938 -1
1682 1939 -1
1682 1953 -1
1682 1954 -1
1682 1955 -1
1683 1683 2.6E1
1683 1684 -1
1683 1698 -1
1683 1699 -1
1683 1700 -1
1683 1922 -1
1683 1923 -1
1683 1924 -1
1683 1938 -1
1683 1939 -1
1683 1940 -1
1683 1954 -1
1683 1955 -1
1683 1956 -1
1684 1684 2.6E1
1684 1685 -1
1684 1699 -1
1684 1700 -1
1684 1701 -1
1684 1923 -1
1684 1924 -1
1684 1925 -1
1684 1939 -1
1684 1940 -1
1684 1941 -1
1684 1955 -1
1684 1956 -1
1684 1957 -1
1685 1685 2.6E1
1685 1686 -1
1685 1700 -1
1685 1701 -1
1685 1702 -1
1685 1924 -1
1685 1925 -1
1685 1926 -1
1685 1940 -1
1685 1941 -1
1685 1942 -1
1685 1956 -1
1685 1957 -1
1685 1958 -1
1686 1686 2.6E1
1686 1687 -1
1686 1701 -1
1686 1702 -1
1686 1703 -1
1686 1925 -1
1686 1926 -1
1686 1927 -1
1686 1941 -1
1686 1942 -1
1686 1943 -1
1686 1957 -1
1686 1958 -1
1686 1959 -1
1687 1687 2.6E1
1687 1688 -1
1687 1702 -1
1687 1703 -1
1687 1704 -1
1687 1926 -1
1687 1927 -1
1687 1928 -1
1687 1942 -1
1687 1943 -1
1687 1944 -1
1687 1958 -1
1687 1959 -1
1687 1960 -1
1688 1688 2.6E1
1688 1689 -1
1688 1703 -1
1688 1704 -1
1688 1705 -1
1688 1927 -1
1688 1928 -1
1688 1929 -1
1688 1943 -1
1688 1944 -1
1688 1945 -1
1688 1959 -1
1688 1960 -1
1688 1961 -1
1689 1689 2.6E1
1689 1690 -1
1689 1704 -1
1689 1705 -1
1689 1706 -1
1689 1928 -1
1689 1929 -1
1689 1930 -1
1689 1944 -1
1689 1945 -1
1689 1946 -1
1689 1960 -1
1689 1961 -1
1689 1962 -1
1690 1690 2.6E1
1690 1691 -1
1690 1705 -1
1690 1706 -1
1690 1707 -1
1690 1929 -1
1690 1930 -1
1690 1931 -1
1690 1945 -1
1690 1946 -1
1690 1947 -1
1690 1961 -1
1690 1962 -1
1690 1963 -1
1691 1691 2.6E1
1691 1692 -1
1691 1706 -1
1691 1707 -1
1691 1708 -1
1691 1930 -1
1691 1931 -1
1691 1932 -1
1691 1946 -1
1691 1947 -1
1691 1948 -1
1691 1962 -1
1691 1963 -1
1691 1964 -1
1692 1692 2.6E1
1692 1693 -1
1692 1707 -1
1692 1708 -1
1692 1709 -1
1692 1931 -1
1692 1932 -1
1692 1933 -1
1692 1947 -1
1692 1948 -1
1692 1949 -1
1692 1963 -1
1692 1964 -1
1692 1965 -1
1693 1693 2.6E1
1693 1694 -1
1693 1708 -1
1693 1709 -1
1693 1710 -1
1693 1932 -1
1693 1933 -1
1693 1934 -1
1693 1948 -1
1693 1949 -1
1693 1950 -1
1693 1964 -1
1693 1965 -1
1693 1966 -1
1694 1694 2.6E1
1694 1695 -1
1694 1709 -1
1694 1710 -1
1694 1711 -1
1694 1933 -1
1694 1934 -1
1694 1935 -1
1694 1949 -1
1694 1950 -1
1694 1951 -1
1694 1965 -1
1694 1966 -1
1694 1967 -1
1695 1695 2.6E1
1695 1696 -1
1695 1710 -1
1695 1711 -1
1695 1712 -1
1695 1934 -1
1695 1935 -1
1695 1936 -1
1695 1950 -1
1695 1951 -1
1695 1952 -1
1695 1966 -1
1695 1967 -1
1695 1968 -1
1696 1696 2.6E1
1696 1711 -1
1696 1712 -1
1696 1935 -1
1696 1936 -1
1696 1951 -1
1696 1952 -1
1696 1967 -1
1696 1968 -1
1697 1697 2.6E1
1697 1698 -1
1697 1713 -1
1697 1714 -1
1697 1937 -1
1697 1938 -1
1697 1953 -1
1697 1954 -1
1697 1969 -1
1697 1970 -1
1698 1698 2.6E1
1698 1699 -1
1698 1713 -1
1698 1714 -1
1698 1715 -1
1698 1937 -1
1698 1938 -1
1698 1939 -1
1698 1953 -1
1698 1954 -1
1698 1955 -1
1698 1969 -1
1698 1970 -1
1698 1971 -1
1699 1699 2.6E1
1699 1700 -1
1699 1714 -1
1699 1715 -1
1699 1716 -1
1699 1938 -1
1699 1939 -1
1699 1940 -1
1699 1954 -1
1699 1955 -1
1699 1956 -1
1699 1970 -1
1699 1971 -1
1699 1972 -1
1700 1700 2.6E1
1700 1701 -1
1700 1715 -1
1700 1716 -1
1700 1717 -1
1700 1939 -1
1700 1940 -1
1700 1941 -1
1700 1955 -1
1700 1956 -1
1700 1957 -1
1700 1971 -1
1700 1972 -1
1700 1973 -1
1701 1701 2.6E1
1701 1702 -1
1701 1716 -1
1701 1717 -1
1701 1718 -1
1701 1940 -1
1701 1941 -1
1701 1942 -1
1701 1956 -1
1701 1957 -1
1701 1958 -1
1701 1972 -1
1701 1973 -1
1701 1974 -1
1702 1702 2.6E1
1702 1703 -1
1702 1717 -1
1702 1718 -1
1702 1719 -1
1702 1941 -1
1702 1942 -1
1702 1943 -1
1702 1957 -1
1702 1958 -1
1702 1959 -1
1702 1973 -1
1702 1974 -1
1702 1975 -1
1703 1703 2.6E1
1703 1704 -1
1703 1718 -1
1703 1719 -1
1703 1720 -1
1703 1942 -1
1703 1943 -1
1703 1944 -1
1703 1958 -1
1703 1959 -1
1703 1960 -1
1703 1974 -1
1703 1975 -1
1703 1976 -1
1704 1704 2.6E1
1704 1705 -1
1704 1719 -1
1704 1720 -1
1704 1721 -1
1704 1943 -1
1704 1944 -1
1704 1945 -1
1704 1959 -1
1704 1960 -1
1704 1961 -1
1704 1975 -1
1704 1976 -1
1704 1977 -1
1705 1705 2.6E1
1705 1706 -1
1705 1720 -1
1705 1721 -1
1705 1722 -1
1705 1944 -1
1705 1945 -1
1705 1946 -1
1705 1960 -1
1705 1961 -1
1705 1962 -1
1705 1976 -1
1705 1977 -1
1705 1978 -1
1706 1706 2.6E1
1706 1707 -1
1706 1721 -1
1706 1722 -1
1706 1723 -1
1706 1945 -1
1706 1946 -1
1706 1947 -1
1706 1961 -1
1706 1962 -1
1706 1963 -1
1706 1977 -1
1706 1978 -1
1706 1979 -1
1707 1707 2.6E1
1707 1708 -1
1707 1722 -1
1707 1723 -1
1707 1724 -1
1707 1946 -1
1707 1947 -1
1707 1948 -1
1707 1962 -1
1707 1963 -1
1707 1964 -1
1707 1978 -1
1707 1979 -1
1707 1980 -1
1708 1708 2.6E1
1708 1709 -1
1708 1723 -1
1708 1724 -1
1708 1725 -1
1708 1947 -1
1708 1948 -1
1708 1949 -1
1708 1963 -1
1708 1964 -1
1708 1965 -1
1708 1979 -1
1708 1980 -1
1708 1981 -1
1709 1709 2.6E1
1709 1710 -1
1709 1724 -1
1709 1725 -1
1709 1726 -1
1709 1948 -1
1709 1949 -1
1709 1950 -1
1709 1964 -1
1709 1965 -1
1709 1966 -1
1709 1980 -1
1709 1981 -1
1709 1982 -1
1710 1710 2.6E1
1710 1711 -1
1710 1725 -1
1710 1726 -1
1710 1727 -1
1710 1949 -1
1710 1950 -1
1710 1951 -1
1710 1965 -1
1710 1966 -1
1710 1967 -1
1710 1981 -1
1710 1982 -1
1710 1983 -1
1711 1711 2.6E1
1711 1712 -1
1711 1726 -1
1711 1727 -1
1711 1728 -1
1711 1950 -1
1711 1951 -1
1711 1952 -1
1711 1966 -1
1711 1967 -1
1711 1968 -1
1711 1982 -1
1711 1983 -1
1711 1984 -1
1712 1712 2.6E1
1712 1727 -1
1712 1728 -1
1712 1951 -1
1712 1952 -1
1712 1967 -1
1712 1968 -1
1712 1983 -1
1712 1984 -1
1713 1713 2.6E1
1713 1714 -1
1713 1729 -1
1713 1730 -1
1713 1953 -1
1713 1954 -1
1713 1969 -1
1713 1970 -1
1713 1985 -1
1713 1986 -1
1714 1714 2.6E1
1714 1715 -1
1714 1729 -1
1714 1730 -1
1714 1731 -1
1714 1953 -1
1714 1954 -1
1714 1955 -1
1714 1969 -1
1714 1970 -1
1714 1971 -1
1714 1985 -1
1714 1986 -1
1714 1987 -1
1715 1715 2.6E1
1715 1716 -1
1715 1730 -1
1715 1731 -1
1715 1732 -1
1715 1954 -1
1715 1955 -1
1715 1956 -1
1715 1970 -1
1715 1971 -1
1715 1972 -1
1715 1986 -1
1715 1987 -1
1715 1988 -1
1716 1716 2.6E1
1716 1717 -1
1716 1731 -1
1716 1732 -1
1716 1733 -1
1716 1955 -1
1716 1956 -1
1716 1957 -1
1716 1971 -1
1716 1972 -1
1716 1973 -1
1716 1987 -1
1716 1988 -1
1716 1989 -1
1717 1717 2.6E1
1717 1718 -1
1717 1732 -1
1717 1733 -1
1717 1734 -1
1717 1956 -1
1717 1957 -1
1717 1958 -1
1717 1972 -1
1717 1973 -1
1717 1974 -1
1717 1988 -1
1717 1989 -1
1717 1990 -1
1718 1718 2.6E1
1718 1719 -1
1718 1733 -1
1718 1734 -1
1718 1735 -1
1718 1957 -1
1718 1958 -1
1718 1959 -1
1718 1973 -1
1718 1974 -1
1718 1975 -1
1718 1989 -1
1718 1990 -1
1718 1991 -1
1719 1719 2.6E1
1719 1720 -1
1719 1734 -1
1719 1735 -1
1719 1736 -1
1719 1958 -1
1719 1959 -1
1719 1960 -1
1719 1974 -1
1719 1975 -1
1719 1976 -1
1719 1990 -1
1719 1991 -1
1719 1992 -1
1720 1720 2.6E1
1720 1721 -1
1720 1735 -1
1720 1736 -1
1720 1737 -1
1720 1959 -1
1720 1960 -1
1720 1961 -1
1720 1975 -1
1720 1976 -1
1720 1977 -1
1720 1991 -1
1720 1992 -1
1720 1993 -1
1721 1721 2.6E1
1721 1722 -1
1721 1736 -1
1721 1737 -1
1721 1738 -1
1721 1960 -1
1721 1961 -1
1721 1962 -1
1721 1976 -1
1721 1977 -1
1721 1978 -1
1721 1992 -1
1721 1993 -1
1721 1994 -1
1722 1722 2.6E1
1722 1723 -1
1722 1737 -1
1722 1738 -1
1722 1739 -1
1722 1961 -1
1722 1962 -1
1722 1963 -1
1722 1977 -1
1722 1978 -1
1722 1979 -1
1722 1993 -1
1722 1994 -1
1722 1995 -1
1723 1723 2.6E1
1723 1724 -1
1723 1738 -1
1723 1739 -1
1723 1740 -1
1723 1962 -1
1723 1963 -1
1723 1964 -1
1723 1978 -1
1723 1979 -1
1723 1980 -1
1723 1994 -1
1723 1995 -1
1723 1996 -1
1724 1724 2.6E1
1724 1725 -1
1724 1739 -1
1724 1740 -1
1724 1741 -1
1724 1963 -1
1724 1964 -1
1724 1965 -1
1724 1979 -1
1724 1980 -1
1724 1981 -1
1724 1995 -1
1724 1996 -1
1724 1997 -1
1725 1725 2.6E1
1725 1726 -1
1725 1740 -1
1725 1741 -1
1725 1742 -1
1725 1964 -1
1725 1965 -1
1725 1966 -1
1725 1980 -1
1725 1981 -1
1725 1982 -1
1725 1996 -1
1725 1997 -1
1725 1998 -1
1726 1726 2.6E1
1726 1727 -1
1726 1741 -1
1726 1742 -1
1726 1743 -1
1726 1965 -1
1726 1966 -1
1726 1967 -1
1726 1981 -1
1726 1982 -1
1726 1983 -1
1726 1997 -1
1726 1998 -1
1726 1999 -1
1727 1727 2.6E1
1727 1728 -1
1727 1742 -1
1727 1743 -1
1727 1744 -1
1727 1966 -1
1727 1967 -1
1727 1968 -1
1727 1982 -1
1727 1983 -1
1727 1984 -1
1727 1998 -1
1727 1999 -1
1727 2000 -1
1728 1728 2.6E1
1728 1743 -1
1728 1744 -1
1728 1967 -1
1728 1968 -1
1728 1983 -1
1728 1984 -1
1728 1999 -1
1728 2000 -1
1729 1729 2.6E1
1729 1730 -1
1729 1745 -1
1729 1746 -1
1729 1969 -1
1729 1970 -1
1729 1985 -1
1729 1986 -1
1729 2001 -1
1729 2002 -1
1730 1730 2.6E1
1730 1731 -1
1730 1745 -1
1730 1746 -1
1730 1747 -1
1730 1969 -1
1730 1970 -1
1730 1971 -1
1730 1985 -1
1730 1986 -1
1730 1987 -1
1730 2001 -1
1730 2002 -1
1730 2003 -1
1731 1731 2.6E1
1731 1732 -1
1731 1746 -1
1731 1747 -1
1731 1748 -1
1731 1970 -1
1731 1971 -1
1731 1972 -1
1731 1986 -1
1731 1987 -1
1731 1988 -1
1731 2002 -1
1731 2003 -1
1731 2004 -1
1732 1732 2.6E1
1732 1733 -1
1732 1747 -1
1732 1748 -1
1732 1749 -1
1732 1971 -1
1732 1972 -1
1732 1973 -1
1732 1987 -1
1732 1988 -1
1732 1989 -1
1732 2003 -1
1732 2004 -1
1732 2005 -1
1733 1733 2.6E1
1733 1734 -1
1733 1748 -1
1733 1749 -1
1733 1750 -1
1733 1972 -1
1733 1973 -1
1733 1974 -1
1733 1988 -1
1733 1989 -1
1733 1990 -1
1733 2004 -1
1733 2005 -1
1733 2006 -1
1734 1734 2.6E1
1734 1735 -1
1734 1749 -1
1734 1750 -1
1734 1751 -1
1734 1973 -1
1734 1974 -1
1734 1975 -1
1734 1989 -1
1734 1990 -1
1734 1991 -1
1734 2005 -1
1734 2006 -1
1734 2007 -1
1735 1735 2.6E1
1735 1736 -1
1735 1750 -1
1735 1751 -1
1735 1752 -1
1735 1974 -1
1735 1975 -1
1735 1976 -1
1735 1990 -1
1735 1991 -1
1735 1992 -1
1735 2006 -1
1735 2007 -1
1735 2008 -1
1736 1736 2.6E1
1736 1737 -1
1736 1751 -1
1736 1752 -1
1736 1753 -1
1736 1975 -1
1736 1976 -1
1736 1977 -1
1736 1991 -1
1736 1992 -1
1736 1993 -1
1736 2007 -1
1736 2008 -1
1736 2009 -1
1737 1737 2.6E1
1737 1738 -1
1737 1752 -1
1737 1753 -1
1737 1754 -1
1737 1976 -1
1737 1977 -1
1737 1978 -1
1737 1992 -1
1737 1993 -1
1737 1994 -1
1737 2008 -1
1737 2009 -1
1737 2010 -1
1738 1738 2.6E1
1738 1739 -1
1738 1753 -1
1738 1754 -1
1738 1755 -1
1738 1977 -1
1738 1978 -1
1738 1979 -1
1738 1993 -1
1738 1994 -1
1738 1995 -1
1738 2009 -1
1738 2010 -1
1738 2011 -1
1739 1739 2.6E1
1739 1740 -1
1739 1754 -1
1739 1755 -1
1739 1756 -1
1739 1978 -1
1739 1979 -1
1739 1980 -1
1739 1994 -1
1739 1995 -1
1739 1996 -1
1739 2010 -1
1739 2011 -1
1739 2012 -1
1740 1740 2.6E1
1740 1741 -1
1740 1755 -1
1740 1756 -1
1740 1757 -1
1740 1979 -1
1740 1980 -1
1740 1981 -1
1740 1995 -1
1740 1996 -1
1740 1997 -1
1740 2011 -1
1740 2012 -1
1740 2013 -1
1741 1741 2.6E1
1741 1742 -1
1741 1756 -1
1741 1757 -1
1741 1758 -1
1741 1980 -1
1741 1981 -1
1741 1982 -1
1741 1996 -1
1741 1997 -1
1741 1998 -1
1741 2012 -1
1741 2013 -1
1741 2014 -1
1742 1742 2.6E1
1742 1743 -1
1742 1757 -1
1742 1758 -1
1742 1759 -1
1742 1981 -1
1742 1982 -1
1742 1983 -1
1742 1997 -1
1742 1998 -1
1742 1999 -1
1742 2013 -1
1742 2014 -1
1742 2015 -1
1743 1743 2.6E1
1743 1744 -1
1743 1758 -1
1743 1759 -1
1743 1760 -1
1743 1982 -1
1743 1983 -1
1743 1984 -1
1743 1998 -1
1743 1999 -1
1743 2000 -1
1743 2014 -1
1743 2015 -1
1743 2016 -1
1744 1744 2.6E1
1744 1759 -1
1744 1760 -1
1744 1983 -1
1744 1984 -1
1744 1999 -1
1744 2000 -1
1744 2015 -1
1744 2016 -1
1745 1745 2.6E1
1745 1746 -1
1745 1761 -1
1745 1762 -1
1745 1985 -1
1745 1986 -1
1745 2001 -1
1745 2002 -1
1745 2017 -1
1745 2018 -1
1746 1746 2.6E1
1746 1747 -1
1746 1761 -1
1746 1762 -1
1746 1763 -1
1746 1985 -1
1746 1986 -1
1746 1987 -1
1746 2001 -1
1746 2002 -1
1746 2003 -1
1746 2017 -1
1746 2018 -1
1746 2019 -1
1747 1747 2.6E1
1747 1748 -1
1747 1762 -1
1747 1763 -1
1747 1764 -1
1747 1986 -1
1747 1987 -1
1747 1988 -1
1747 2002 -1
1747 2003 -1
1747 2004 -1
1747 2018 -1
1747 2019 -1
1747 2020 -1
1748 1748 2.6E1
1748 1749 -1
1748 1763 -1
1748 1764 -1
1748 1765 -1
1748 1987 -1
1748 1988 -1
1748 1989 -1
1748 2003 -1
1748 2004 -1
1748 2005 -1
1748 2019 -1
1748 2020 -1
1748 2021 -1
1749 1749 2.6E1
1749 1750 -1
1749 1764 -1
1749 1765 -1
1749 1766 -1
1749 1988 -1
1749 1989 -1
1749 1990 -1
1749 2004 -1
1749 2005 -1
1749 2006 -1
1749 2020 -1
1749 2021 -1
1749 2022 -1
1750 1750 2.6E1
1750 1751 -1
1750 1765 -1
1750 1766 -1
1750 1767 -1
1750 1989 -1
1750 1990 -1
1750 1991 -1
1750 2005 -1
1750 2006 -1
1750 2007 -1
1750 2021 -1
1750 2022 -1
1750 2023 -1
1751 1751 2.6E1
1751 1752 -1
1751 1766 -1
1751 1767 -1
1751 1768 -1
1751 1990 -1
1751 1991 -1
1751 1992 -1
1751 2006 -1
1751 2007 -1
1751 2008 -1
1751 2022 -1
1751 2023 -1
1751 2024 -1
1752 1752 2.6E1
1752 1753 -1
1752 1767 -1
1752 1768 -1
1752 1769 -1
1752 1991 -1
1752 1992 -1
1752 1993 -1
1752 2007 -1
1752 2008 -1
1752 2009 -1
1752 2023 -1
1752 2024 -1
1752 2025 -1
1753 1753 2.6E1
1753 1754 -1
1753 1768 -1
1753 1769 -1
1753 1770 -1
1753 1992 -1
1753 1993 -1
1753 1994 -1
1753 2008 -1
1753 2009 -1
1753 2010 -1
1753 2024 -1
1753 2025 -1
1753 2026 -1
1754 1754 2.6E1
1754 1755 -1
1754 1769 -1
1754 1770 -1
1754 1771 -1
1754 1993 -1
1754 1994 -1
1754 1995 -1
1754 2009 -1
1754 2010 -1
1754 2011 -1
1754 2025 -1
1754 2026 -1
1754 2027 -1
1755 1755 2.6E1
1755 1756 -1
1755 1770 -1
1755 1771 -1
1755 1772 -1
1755 1994 -1
1755 1995 -1
1755 1996 -1
1755 2010 -1
1755 2011 -1
1755 2012 -1
1755 2026 -1
1755 2027 -1
1755 2028 -1
1756 1756 2.6E1
1756 1757 -1
1756 1771 -1
1756 1772 -1
1756 1773 -1
1756 1995 -1
1756 1996 -1
1756 1997 -1
1756 2011 -1
1756 2012 -1
1756 2013 -1
1756 2027 -1
1756 2028 -1
1756 2029 -1
1757 1757 2.6E1
1757 1758 -1
1757 1772 -1
1757 1773 -1
1757 1774 -1
1757 1996 -1
1757 1997 -1
1757 1998 -1
1757 2012 -1
1757 2013 -1
1757 2014 -1
1757 2028 -1
1757 2029 -1
1757 2030 -1
1758 1758 2.6E1
1758 1759 -1
1758 1773 -1
1758 1774 -1
1758 1775 -1
1758 1997 -1
1758 1998 -1
1758 1999 -1
1758 2013 -1
1758 2014 -1
1758 2015 -1
1758 2029 -1
1758 2030 -1
1758 2031 -1
1759 1759 2.6E1
1759 1760 -1
1759 1774 -1
1759 1775 -1
1759 1776 -1
1759 1998 -1
1759 1999 -1
1759 2000 -1
1759 2014 -1
1759 2015 -1
1759 2016 -1
1759 2030 -1
1759 2031 -1
1759 2032 -1
1760 1760 2.6E1
1760 1775 -1
1760 1776 -1
1760 1999 -1
1760 2000 -1
1760 2015 -1
1760 2016 -1
1760 2031 -1
1760 2032 -1
1761 1761 2.6E1
1761 1762 -1
1761 1777 -1
1761 1778 -1
1761 2001 -1
1761 2002 -1
1761 2017 -1
1761 2018 -1
1761 2033 -1
1761 2034 -1
1762 1762 2.6E1
1762 1763 -1
1762 1777 -1
1762 1778 -1
1762 1779 -1
1762 2001 -1
1762 2002 -1
1762 2003 -1
1762 2017 -1
1762 2018 -1
1762 2019 -1
1762 2033 -1
1762 2034 -1
1762 2035 -1
1763 1763 2.6E1
1763 1764 -1
1763 1778 -1
1763 1779 -1
1763 1780 -1
1763 2002 -1
1763 2003 -1
1763 2004 -1
1763 2018 -1
1763 2019 -1
1763 2020 -1
1763 2034 -1
1763 2035 -1
1763 2036 -1
1764 1764 2.6E1
1764 1765 -1
1764 1779 -1
1764 1780 -1
1764 1781 -1
1764 2003 -1
1764 2004 -1
1764 2005 -1
1764 2019 -1
1764 2020 -1
1764 2021 -1
1764 2035 -1
1764 2036 -1
1764 2037 -1
1765 1765 2.6E1
1765 1766 -1
1765 1780 -1
1765 1781 -1
1765 1782 -1
1765 2004 -1
1765 2005 -1
1765 2006 -1
1765 2020 -1
1765 2021 -1
1765 2022 -1
1765 2036 -1
1765 2037 -1
1765 2038 -1
1766 1766 2.6E1
1766 1767 -1
1766 1781 -1
1766 1782 -1
1766 1783 -1
1766 2005 -1
1766 2006 -1
1766 2007 -1
1766 2021 -1
1766 2022 -1
1766 2023 -1
1766 2037 -1
1766 2038 -1
1766 2039 -1
1767 1767 2.6E1
1767 1768 -1
1767 1782 -1
1767 1783 -1
1767 1784 -1
1767 2006 -1
1767 2007 -1
1767 2008 -1
1767 2022 -1
1767 2023 -1
1767 2024 -1
1767 2038 -1
1767 2039 -1
1767 2040 -1
1768 1768 2.6E1
1768 1769 -1
1768 1783 -1
1768 1784 -1
1768 1785 -1
1768 2007 -1
1768 2008 -1
1768 2009 -1
1768 2023 -1
1768 2024 -1
1768 2025 -1
1768 2039 -1
1768 2040 -1
1768 2041 -1
1769 1769 2.6E1
1769 1770 -1
1769 1784 -1
1769 1785 -1
1769 1786 -1
1769 2008 -1
1769 2009 -1
1769 2010 -1
1769 2024 -1
1769 2025 -1
1769 2026 -1
1769 2040 -1
1769 2041 -1
1769 2042 -1
1770 1770 2.6E1
1770 1771 -1
1770 1785 -1
1770 1786 -1
1770 1787 -1
1770 2009 -1
1770 2010 -1
1770 2011 -1
1770 2025 -1
1770 2026 -1
1770 2027 -1
1770 2041 -1
1770 2042 -1
1770 2043 -1
1771 1771 2.6E1
1771 1772 -1
1771 1786 -1
1771 1787 -1
1771 1788 -1
1771 2010 -1
1771 2011 -1
1771 2012 -1
1771 2026 -1
1771 2027 -1
1771 2028 -1
1771 2042 -1
1771 2043 -1
1771 2044 -1
1772 1772 2.6E1
1772 1773 -1
1772 1787 -1
1772 1788 -1
1772 1789 -1
1772 2011 -1
1772 2012 -1
1772 2013 -1
1772 2027 -1
1772 2028 -1
1772 2029 -1
1772 2043 -1
1772 2044 -1
1772 2045 -1
1773 1773 2.6E1
1773 1774 -1
1773 1788 -1
1773 1789 -1
1773 1790 -1
1773 2012 -1
1773 2013 -1
1773 2014 -1
1773 2028 -1
1773 2029 -1
1773 2030 -1
1773 2044 -1
1773 2045 -1
1773 2046 -1
1774 1774 2.6E1
1774 1775 -1
1774 1789 -1
1774 1790 -1
1774 1791 -1
1774 2013 -1
1774 2014 -1
1774 2015 -1
1774 2029 -1
1774 2030 -1
1774 2031 -1
1774 2045 -1
1774 2046 -1
1774 2047 -1
1775 1775 2.6E1
1775 1776 -1
1775 1790 -1
1775 1791 -1
1775 1792 -1
1775 2014 -1
1775 2015 -1
1775 2016 -1
1775 2030 -1
1775 2031 -1
1775 2032 -1
1775 2046 -1
1775 2047 -1
1775 2048 -1
1776 1776 2.6E1
1776 1791 -1
1776 1792 -1
1776 2015 -1
1776 2016 -1
1776 2031 -1
1776 2032 -1
1776 2047 -1
1776 2048 -1
1777 1777 2.6E1
1777 1778 -1
1777 2017 -1
1777 2018 -1
1777 2033 -1
1777 2034 -1
1778 1778 2.6E1
1778 1779 -1
1778 2017 -1
1778 2018 -1
1778 2019 -1
1778 2033 -1
1778 2034 -1
1778 2035 -1
1779 1779 2.6E1
1779 1780 -1
1779 2018 -1
1779 2019 -1
1779 2020 -1
1779 2034 -1
1779 2035 -1
1779 2036 -1
1780 1780 2.6E1
1780 1781 -1
1780 2019 -1
1780 2020 -1
1780 2021 -1
1780 2035 -1
1780 2036 -1
1780 2037 -1
1781 1781 2.6E1
1781 1782 -1
1781 2020 -1
1781 2021 -1
1781 2022 -1
1781 2036 -1
1781 2037 -1
1781 2038 -1
1782 1782 2.6E1
1782 1783 -1
1782 2021 -1
1782 2022 -1
1782 2023 -1
1782 2037 -1
1782 2038 -1
1782 2039 -1
1783 1783 2.6E1
1783 1784 -1
1783 2022 -1
1783 2023 -1
1783 2024 -1
1783 2038 -1
1783 2039 -1
1783 2040 -1
1784 1784 2.6E1
1784 1785 -1
1784 2023 -1
1784 2024 -1
1784 2025 -1
1784 2039 -1
1784 2040 -1
1784 2041 -1
1785 1785 2.6E1
1785 1786 -1
1785 2024 -1
1785 2025 -1
1785 2026 -1
1785 2040 -1
1785 2041 -1
1785 2042 -1
1786 1786 2.6E1
1786 1787 -1
1786 2025 -1
1786 2026 -1
1786 2027 -1
1786 2041 -1
1786 2042 -1
1786 2043 -1
1787 1787 2.6E1
1787 1788 -1
1787 2026 -1
1787 2027 -1
1787 2028 -1
1787 2042 -1
1787 2043 -1
1787 2044 -1
1788 1788 2.6E1
1788 1789 -1
1788 2027 -1
1788 2028 -1
1788 2029 -1
1788 2043 -1
1788 2044 -1
1788 2045 -1
1789 1789 2.6E1
1789 1790 -1
1789 2028 -1
1789 2029 -1
1789 2030 -1
1789 2044 -1
1789 2045 -1
1789 2046 -1
1790 1790 2.6E1
1790 1791 -1
1790 2029 -1
1790 2030 -1
1790 2031 -1
1790 2045 -1
1790 2046 -1
1790 2047 -1
1791 1791 2.6E1
1791 1792 -1
1791 2030 -1
1791 2031 -1
1791 2032 -1
1791 2046 -1
1791 2047 -1
1791 2048 -1
1792 1792 2.6E1
1792 2031 -1
1792 2032 -1
1792 2047 -1
1792 2048 -1
1793 1793 2.6E1
1793 1794 -1
1793 1809 -1
1793 1810 -1
1793 2049 -1
1793 2050 -1
1793 2065 -1
1793 2066 -1
1794 1794 2.6E1
1794 1795 -1
1794 1809 -1
1794 1810 -1
1794 1811 -1
1794 2049 -1
1794 2050 -1
1794 2051 -1
1794 2065 -1
1794 2066 -1
1794 2067 -1
1795 1795 2.6E1
1795 1796 -1
1795 1810 -1
1795 1811 -1
1795 1812 -1
1795 2050 -1
1795 2051 -1
1795 2052 -1
1795 2066 -1
1795 2067 -1
1795 2068 -1
1796 1796 2.6E1
1796 1797 -1
1796 1811 -1
1796 1812 -1
1796 1813 -1
1796 2051 -1
1796 2052 -1
1796 2053 -1
1796 2067 -1
1796 2068 -1
1796 2069 -1
1797 1797 2.6E1
1797 1798 -1
1797 1812 -1
1797 1813 -1
1797 1814 -1
1797 2052 -1
1797 2053 -1
1797 2054 -1
1797 2068 -1
1797 2069 -1
1797 2070 -1
1798 1798 2.6E1
1798 1799 -1
1798 1813 -1
1798 1814 -1
1798 1815 -1
1798 2053 -1
1798 2054 -1
1798 2055 -1
1798 2069 -1
1798 2070 -1
1798 2071 -1
1799 1799 2.6E1
1799 1800 -1
1799 1814 -1
1799 1815 -1
1799 1816 -1
1799 2054 -1
1799 2055 -1
1799 2056 -1
1799 2070 -1
1799 2071 -1
1799 2072 -1
1800 1800 2.6E1
1800 1801 -1
1800 1815 -1
1800 1816 -1
1800 1817 -1
1800 2055 -1
1800 2056 -1
1800 2057 -1
1800 2071 -1
1800 2072 -1
1800 2073 -1
1801 1801 2.6E1
1801 1802 -1
1801 1816 -1
1801 1817 -1
1801 1818 -1
1801 2056 -1
1801 2057 -1
1801 2058 -1
1801 2072 -1
1801 2073 -1
1801 2074 -1
1802 1802 2.6E1
1802 1803 -1
1802 1817 -1
1802 1818 -1
1802 1819 -1
1802 2057 -1
1802 2058 -1
1802 2059 -1
1802 2073 -1
1802 2074 -1
1802 2075 -1
1803 1803 2.6E1
1803 1804 -1
1803 1818 -1
1803 1819 -1
1803 1820 -1
1803 2058 -1
1803 2059 -1
1803 2060 -1
1803 2074 -1
1803 2075 -1
1803 2076 -1
1804 1804 2.6E1
1804 1805 -1
1804 1819 -1
1804 1820 -1
1804 1821 -1
1804 2059 -1
1804 2060 -1
1804 2061 -1
1804 2075 -1
1804 2076 -1
1804 2077 -1
1805 1805 2.6E1
1805 1806 -1
1805 1820 -1
1805 1821 -1
1805 1822 -1
1805 2060 -1
1805 2061 -1
1805 2062 -1
1805 2076 -1
1805 2077 -1
1805 2078 -1
1806 1806 2.6E1
1806 1807 -1
1806 1821 -1
1806 1822 -1
1806 1823 -1
1806 2061 -1
1806 2062 -1
1806 2063 -1
1806 2077 -1
1806 2078 -1
1806 2079 -1
1807 1807 2.6E1
1807 1808 -1
1807 1822 -1
1807 1823 -1
1807 1824 -1
1807 2062 -1
1807 2063 -1
1807 2064 -1
1807 2078 -1
1807 2079 -1
1807 2080 -1
1808 1808 2.6E1
1808 1823 -1
1808 1824 -1
1808 2063 -1
1808 2064 -1
1808 2079 -1
1808 2080 -1
1809 1809 2.6E1
1809 1810 -1
1809 1825 -1
1809 1826 -1
1809 2049 -1
1809 2050 -1
1809 2065 -1
1809 2066 -1
1809 2081 -1
1809 2082 -1
1810 1810 2.6E1
1810 1811 -1
1810 1825 -1
1810 1826 -1
1810 1827 -1
1810 2049 -1
1810 2050 -1
1810 2051 -1
1810 2065 -1
1810 2066 -1
1810 2067 -1
1810 2081 -1
1810 2082 -1
1810 2083 -1
1811 1811 2.6E1
1811 1812 -1
1811 1826 -1
1811 1827 -1
1811 1828 -1
1811 2050 -1
1811 2051 -1
1811 2052 -1
1811 2066 -1
1811 2067 -1
1811 2068 -1
1811 2082 -1
1811 2083 -1
1811 2084 -1
1812 1812 2.6E1
1812 1813 -1
1812 1827 -1
1812 1828 -1
1812 1829 -1
1812 2051 -1
1812 2052 -1
1812 2053 -1
1812 2067 -1
1812 2068 -1
1812 2069 -1
1812 2083 -1
1812 2084 -1
1812 2085 -1
1813 1813 2.6E1
1813 1814 -1
1813 1828 -1
1813 1829 -1
1813 1830 -1
1813 2052 -1
1813 2053 -1
1813 2054 -1
1813 2068 -1
1813 2069 -1
1813 2070 -1
1813 2084 -1
1813 2085 -1
1813 2086 -1
1814 1814 2.6E1
1814 1815 -1
1814 1829 -1
1814 1830 -1
1814 1831 -1
1814 2053 -1
1814 2054 -1
1814 2055 -1
1814 2069 -1
1814 2070 -1
1814 2071 -1
1814 2085 -1
1814 2086 -1
1814 2087 -1
1815 1815 2.6E1
1815 1816 -1
1815 1830 -1
1815 1831 -1
1815 1832 -1
1815 2054 -1
1815 2055 -1
1815 2056 -1
1815 2070 -1
1815 2071 -1
1815 2072 -1
1815 2086 -1
1815 2087 -1
1815 2088 -1
1816 1816 2.6E1
1816 1817 -1
1816 1831 -1
1816 1832 -1
1816 1833 -1
1816 2055 -1
1816 2056 -1
1816 2057 -1
1816 2071 -1
1816 2072 -1
1816 2073 -1
1816 2087 -1
1816 2088 -1
1816 2089 -1
1817 1817 2.6E1
1817 1818 -1
1817 1832 -1
1817 1833 -1
1817 1834 -1
1817 2056 -1
1817 2057 -1
1817 2058 -1
1817 2072 -1
1817 2073 -1
1817 2074 -1
1817 2088 -1
1817 2089 -1
1817 2090 -1
1818 1818 2.6E1
1818 1819 -1
1818 1833 -1
1818 1834 -1
1818 1835 -1
1818 2057 -1
1818 2058 -1
1818 2059 -1
1818 2073 -1
1818 2074 -1
1818 2075 -1
1818 2089 -1
1818 2090 -1
1818 2091 -1
1819 1819 2.6E1
1819 1820 -1
1819 1834 -1
1819 1835 -1
1819 1836 -1
1819 2058 -1
1819 2059 -1
1819 2060 -1
1819 2074 -1
1819 2075 -1
1819 2076 -1
1819 2090 -1
1819 2091 -1
1819 2092 -1
1820 1820 2.6E1
1820 1821 -1
1820 1835 -1
1820 1836 -1
1820 1837 -1
1820 2059 -1
1820 2060 -1
1820 2061 -1
1820 2075 -1
1820 2076 -1
1820 2077 -1
1820 2091 -1
1820 2092 -1
1820 2093 -1
1821 1821 2.6E1
1821 1822 -1
1821 1836 -1
1821 1837 -1
1821 1838 -1
1821 2060 -1
1821 2061 -1
1821 2062 -1
1821 2076 -1
1821 2077 -1
1821 2078 -1
1821 2092 -1
1821 2093 -1
1821 2094 -1
1822 1822 2.6E1
1822 1823 -1
1822 1837 -1
1822 1838 -1
1822 1839 -1
1822 2061 -1
1822 2062 -1
1822 2063 -1
1822 2077 -1
1822 2078 -1
1822 2079 -1
1822 2093 -1
1822 2094 -1
1822 2095 -1
1823 1823 2.6E1
1823 1824 -1
1823 1838 -1
1823 1839 -1
1823 1840 -1
1823 2062 -1
1823 2063 -1
1823 2064 -1
1823 2078 -1
1823 2079 -1
1823 2080 -1
1823 2094 -1
1823 2095 -1
1823 2096 -1
1824 1824 2.6E1
1824 1839 -1
1824 1840 -1
1824 2063 -1
1824 2064 -1
1824 2079 -1
1824 2080 -1
1824 2095 -1
1824 2096 -1
1825 1825 2.6E1
1825 1826 -1
1825 1841 -1
1825 1842 -1
1825 2065 -1
1825 2066 -1
1825 2081 -1
1825 2082 -1
1825 2097 -1
1825 2098 -1
1826 1826 2.6E1
1826 1827 -1
1826 1841 -1
1826 1842 -1
1826 1843 -1
1826 2065 -1
1826 2066 -1
1826 2067 -1
1826 2081 -1
1826 2082 -1
1826 2083 -1
1826 2097 -1
1826 2098 -1
1826 2099 -1
1827 1827 2.6E1
1827 1828 -1
1827 1842 -1
1827 1843 -1
1827 1844 -1
1827 2066 -1
1827 2067 -1
1827 2068 -1
1827 2082 -1
1827 2083 -1
1827 2084 -1
1827 2098 -1
1827 2099 -1
1827 2100 -1
1828 1828 2.6E1
1828 1829 -1
1828 1843 -1
1828 1844 -1
1828 1845 -1
1828 2067 -1
1828 2068 -1
1828 2069 -1
1828 2083 -1
1828 2084 -1
1828 2085 -1
1828 2099 -1
1828 2100 -1
1828 2101 -1
1829 1829 2.6E1
1829 1830 -1
1829 1844 -1
1829 1845 -1
1829 1846 -1
1829 2068 -1
1829 2069 -1
1829 2070 -1
1829 2084 -1
1829 2085 -1
1829 2086 -1
1829 2100 -1
1829 2101 -1
1829 2102 -1
1830 1830 2.6E1
1830 1831 -1
1830 1845 -1
1830 1846 -1
1830 1847 -1
1830 2069 -1
1830 2070 -1
1830 2071 -1
1830 2085 -1
1830 2086 -1
1830 2087 -1
1830 2101 -1
1830 2102 -1
1830 2103 -1
1831 1831 2.6E1
1831 1832 -1
1831 1846 -1
1831 1847 -1
1831 1848 -1
1831 2070 -1
1831 2071 -1
1831 2072 -1
1831 2086 -1
1831 2087 -1
1831 2088 -1
1831 2102 -1
1831 2103 -1
1831 2104 -1
1832 1832 2.6E1
1832 1833 -1
1832 1847 -1
1832 1848 -1
1832 1849 -1
1832 2071 -1
1832 2072 -1
1832 2073 -1
1832 2087 -1
1832 2088 -1
1832 2089 -1
1832 2103 -1
1832 2104 -1
1832 2105 -1
1833 1833 2.6E1
1833 1834 -1
1833 1848 -1
1833 1849 -1
1833 1850 -1
1833 2072 -1
1833 2073 -1
1833 2074 -1
1833 2088 -1
1833 2089 -1
1833 2090 -1
1833 2104 -1
1833 2105 -1
1833 2106 -1
1834 1834 2.6E1
1834 1835 -1
1834 1849 -1
1834 1850 -1
1834 1851 -1
1834 2073 -1
1834 2074 -1
1834 2075 -1
1834 2089 -1
1834 2090 -1
1834 2091 -1
1834 2105 -1
1834 2106 -1
1834 2107 -1
1835 1835 2.6E1
1835 1836 -1
1835 1850 -1
1835 1851 -1
1835 1852 -1
1835 2074 -1
1835 2075 -1
1835 2076 -1
1835 2090 -1
1835 2091 -1
1835 2092 -1
1835 2106 -1
1835 2107 -1
1835 2108 -1
1836 1836 2.6E1
1836 1837 -1
1836 1851 -1
1836 1852 -1
1836 1853 -1
1836 2075 -1
1836 2076 -1
1836 2077 -1
1836 2091 -1
1836 2092 -1
1836 2093 -1
1836 2107 -1
1836 2108 -1
1836 2109 -1
1837 1837 2.6E1
1837 1838 -1
1837 1852 -1
1837 1853 -1
1837 1854 -1
1837 2076 -1
1837 2077 -1
1837 2078 -1
1837 2092 -1
1837 2093 -1
1837 2094 -1
1837 2108 -1
1837 2109 -1
1837 2110 -1
1838 1838 2.6E1
1838 1839 -1
1838 1853 -1
1838 1854 -1
1838 1855 -1
1838 2077 -1
1838 2078 -1
1838 2079 -1
1838 2093 -1
1838 2094 -1
1838 2095 -1
1838 2109 -1
1838 2110 -1
1838 2111 -1
1839 1839 2.6E1
1839 1840 -1
1839 1854 -1
1839 1855 -1
1839 1856 -1
1839 2078 -1
1839 2079 -1
1839 2080 -1
1839 2094 -1
1839 2095 -1
1839 2096 -1
1839 2110 -1
1839 2111 -1
1839 2112 -1
1840 1840 2.6E1
1840 1855 -1
1840 1856 -1
1840 2079 -1
1840 2080 -1
1840 2095 -1
1840 2096 -1
1840 2111 -1
1840 2112 -1
1841 1841 2.6E1
1841 1842 -1
1841 1857 -1
1841 1858 -1
1841 2081 -1
1841 2082 -1
1841 2097 -1
1841 2098 -1
1841 2113 -1
1841 2114 -1
1842 1842 2.6E1
1842 1843 -1
1842 1857 -1
1842 1858 -1
1842 1859 -1
1842 2081 -1
1842 2082 -1
1842 2083 -1
1842 2097 -1
1842 2098 -1
1842 2099 -1
1842 2113 -1
1842 2114 -1
1842 2115 -1
1843 1843 2.6E1
1843 1844 -1
1843 1858 -1
1843 1859 -1
1843 1860 -1
1843 2082 -1
1843 2083 -1
1843 2084 -1
1843 2098 -1
1843 2099 -1
1843 2100 -1
1843 2114 -1
1843 2115 -1
1843 2116 -1
1844 1844 2.6E1
1844 1845 -1
1844 1859 -1
1844 1860 -1
1844 1861 -1
1844 2083 -1
1844 2084 -1
1844 2085 -1
1844 2099 -1
1844 2100 -1
1844 2101 -1
1844 2115 -1
1844 2116 -1
1844 2117 -1
1845 1845 2.6E1
1845 1846 -1
1845 1860 -1
1845 1861 -1
1845 1862 -1
1845 2084 -1
1845 2085 -1
1845 2086 -1
1845 2100 -1
1845 2101 -1
1845 2102 -1
1845 2116 -1
1845 2117 -1
1845 2118 -1
1846 1846 2.6E1
1846 1847 -1
1846 1861 -1
1846 1862 -1
1846 1863 -1
1846 2085 -1
1846 2086 -1
1846 2087 -1
1846 2101 -1
1846 2102 -1
1846 2103 -1
1846 2117 -1
1846 2118 -1
1846 2119 -1
1847 1847 2.6E1
1847 1848 -1
1847 1862 -1
1847 1863 -1
1847 1864 -1
1847 2086 -1
1847 2087 -1
1847 2088 -1
1847 2102 -1
1847 2103 -1
1847 2104 -1
1847 2118 -1
1847 2119 -1
1847 2120 -1
1848 1848 2.6E1
1848 1849 -1
1848 1863 -1
1848 1864 -1
1848 1865 -1
1848 2087 -1
1848 2088 -1
1848 2089 -1
1848 2103 -1
1848 2104 -1
1848 2105 -1
1848 2119 -1
1848 2120 -1
1848 2121 -1
1849 1849 2.6E1
1849 1850 -1
1849 1864 -1
1849 1865 -1
1849 1866 -1
1849 2088 -1
1849 2089 -1
1849 2090 -1
1849 2104 -1
1849 2105 -1
1849 2106 -1
1849 2120 -1
1849 2121 -1
1849 2122 -1
1850 1850 2.6E1
1850 1851 -1
1850 1865 -1
1850 1866 -1
1850 1867 -1
1850 2089 -1
1850 2090 -1
1850 2091 -1
1850 2105 -1
1850 2106 -1
1850 2107 -1
1850 2121 -1
1850 2122 -1
1850 2123 -1
1851 1851 2.6E1
1851 1852 -1
1851 1866 -1
1851 1867 -1
1851 1868 -1
1851 2090 -1
1851 2091 -1
1851 2092 -1
1851 2106 -1
1851 2107 -1
1851 2108 -1
1851 2122 -1
1851 2123 -1
1851 2124 -1
1852 1852 2.6E1
1852 1853 -1
1852 1867 -1
1852 1868 -1
1852 1869 -1
1852 2091 -1
1852 2092 -1
1852 2093 -1
1852 2107 -1
1852 2108 -1
1852 2109 -1
1852 2123 -1
1852 2124 -1
1852 2125 -1
1853 1853 2.6E1
1853 1854 -1
1853 1868 -1
1853 1869 -1
1853 1870 -1
1853 2092 -1
1853 2093 -1
1853 2094 -1
1853 2108 -1
1853 2109 -1
1853 2110 -1
1853 2124 -1
1853 2125 -1
1853 2126 -1
1854 1854 2.6E1
1854 1855 -1
1854 1869 -1
1854 1870 -1
1854 1871 -1
1854 2093 -1
1854 2094 -1
1854 2095 -1
1854 2109 -1
1854 2110 -1
1854 2111 -1
1854 2125 -1
1854 2126 -1
1854 2127 -1
1855 1855 2.6E1
1855 1856 -1
1855 1870 -1
1855 1871 -1
1855 1872 -1
1855 2094 -1
1855 2095 -1
1855 2096 -1
1855 2110 -1
1855 2111 -1
1855 2112 -1
1855 2126 -1
1855 2127 -1
1855 2128 -1
1856 1856 2.6E1
1856 1871 -1
1856 1872 -1
1856 2095 -1
1856 2096 -1
1856 2111 -1
1856 2112 -1
1856 2127 -1
1856 2128 -1
1857 1857 2.6E1
1857 1858 -1
1857 1873 -1
1857 1874 -1
1857 2097 -1
1857 2098 -1
1857 2113 -1
1857 2114 -1
1857 2129 -1
1857 2130 -1
1858 1858 2.6E1
1858 1859 -1
1858 1873 -1
1858 1874 -1
1858 1875 -1
1858 2097 -1
1858 2098 -1
1858 2099 -1
1858 2113 -1
1858 2114 -1
1858 2115 -1
1858 2129 -1
1858 2130 -1
1858 2131 -1
1859 1859 2.6E1
1859 1860 -1
1859 1874 -1
1859 1875 -1
1859 1876 -1
1859 2098 -1
1859 2099 -1
1859 2100 -1
1859 2114 -1
1859 2115 -1
1859 2116 -1
1859 2130 -1
1859 2131 -1
1859 2132 -1
1860 1860 2.6E1
1860 1861 -1
1860 1875 -1
1860 1876 -1
1860 1877 -1
1860 2099 -1
1860 2100 -1
1860 2101 -1
1860 2115 -1
1860 2116 -1
1860 2117 -1
1860 2131 -1
1860 2132 -1
1860 2133 -1
1861 1861 2.6E1
1861 1862 -1
1861 1876 -1
1861 1877 -1
1861 1878 -1
1861 2100 -1
1861 2101 -1
1861 2102 -1
1861 2116 -1
1861 2117 -1
1861 2118 -1
1861 2132 -1
1861 2133 -1
1861 2134 -1
1862 1862 2.6E1
1862 1863 -1
1862 1877 -1
1862 1878 -1
1862 1879 -1
1862 2101 -1
1862 2102 -1
1862 2103 -1
1862 2117 -1
1862 2118 -1
1862 2119 -1
1862 2133 -1
1862 2134 -1
1862 2135 -1
1863 1863 2.6E1
1863 1864 -1
1863 1878 -1
1863 1879 -1
1863 1880 -1
1863 2102 -1
1863 2103 -1
1863 2104 -1
1863 2118 -1
1863 2119 -1
1863 2120 -1
1863 2134 -1
1863 2135 -1
1863 2136 -1
1864 1864 2.6E1
1864 1865 -1
1864 1879 -1
1864 1880 -1
1864 1881 -1
1864 2103 -1
1864 2104 -1
1864 2105 -1
1864 2119 -1
1864 2120 -1
1864 2121 -1
1864 2135 -1
1864 2136 -1
1864 2137 -1
1865 1865 2.6E1
1865 1866 -1
1865 1880 -1
1865 1881 -1
1865 1882 -1
1865 2104 -1
1865 2105 -1
1865 2106 -1
1865 2120 -1
1865 2121 -1
1865 2122 -1
1865 2136 -1
1865 2137 -1
1865 2138 -1
1866 1866 2.6E1
1866 1867 -1
1866 1881 -1
1866 1882 -1
1866 1883 -1
1866 2105 -1
1866 2106 -1
1866 2107 -1
1866 2121 -1
1866 2122 -1
1866 2123 -1
1866 2137 -1
1866 2138 -1
1866 2139 -1
1867 1867 2.6E1
1867 1868 -1
1867 1882 -1
1867 1883 -1
1867 1884 -1
1867 2106 -1
1867 2107 -1
1867 2108 -1
1867 2122 -1
1867 2123 -1
1867 2124 -1
1867 2138 -1
1867 2139 -1
1867 2140 -1
1868 1868 2.6E1
1868 1869 -1
1868 1883 -1
1868 1884 -1
1868 1885 -1
1868 2107 -1
1868 2108 -1
1868 2109 -1
1868 2123 -1
1868 2124 -1
1868 2125 -1
1868 2139 -1
1868 2140 -1
1868 2141 -1
1869 1869 2.6E1
1869 1870 -1
1869 1884 -1
1869 1885 -1
1869 1886 -1
1869 2108 -1
1869 2109 -1
1869 2110 -1
1869 2124 -1
1869 2125 -1
1869 2126 -1
1869 2140 -1
1869 2141 -1
1869 2142 -1
1870 1870 2.6E1
1870 1871 -1
1870 1885 -1
1870 1886 -1
1870 1887 -1
1870 2109 -1
1870 2110 -1
1870 2111 -1
1870 2125 -1
1870 2126 -1
1870 2127 -1
1870 2141 -1
1870 2142 -1
1870 2143 -1
1871 1871 2.6E1
1871 1872 -1
1871 1886 -1
1871 1887 -1
1871 1888 -1
1871 2110 -1
1871 2111 -1
1871 2112 -1
1871 2126 -1
1871 2127 -1
1871 2128 -1
1871 2142 -1
1871 2143 -1
1871 2144 -1
1872 1872 2.6E1
1872 1887 -1
1872 1888 -1
1872 2111 -1
1872 2112 -1
1872 2127 -1
1872 2128 -1
1872 2143 -1
1872 2144 -1
1873 1873 2.6E1
1873 1874 -1
1873 1889 -1
1873 1890 -1
1873 2113 -1
1873 2114 -1
1873 2129 -1
1873 2130 -1
1873 2145 -1
1873 2146 -1
1874 1874 2.6E1
1874 1875 -1
1874 1889 -1
1874 1890 -1
1874 1891 -1
1874 2113 -1
1874 2114 -1
1874 2115 -1
1874 2129 -1
1874 2130 -1
1874 2131 -1
1874 2145 -1
1874 2146 -1
1874 2147 -1
1875 1875 2.6E1
1875 1876 -1
1875 1890 -1
1875 1891 -1
1875 1892 -1
1875 2114 -1
1875 2115 -1
1875 2116 -1
1875 2130 -1
1875 2131 -1
1875 2132 -1
1875 2146 -1
1875 2147 -1
1875 2148 -1
1876 1876 2.6E1
1876 1877 -1
1876 1891 -1
1876 1892 -1
1876 1893 -1
1876 2115 -1
1876 2116 -1
1876 2117 -1
1876 2131 -1
1876 2132 -1
1876 2133 -1
1876 2147 -1
1876 2148 -1
1876 2149 -1
1877 1877 2.6E1
1877 1878 -1
1877 1892 -1
1877 1893 -1
1877 1894 -1
1877 2116 -1
1877 2117 -1
1877 2118 -1
1877 2132 -1
1877 2133 -1
1877 2134 -1
1877 2148 -1
1877 2149 -1
1877 2150 -1
1878 1878 2.6E1
1878 1879 -1
1878 1893 -1
1878 1894 -1
1878 1895 -1
1878 2117 -1
1878 2118 -1
1878 2119 -1
1878 2133 -1
1878 2134 -1
1878 2135 -1
1878 2149 -1
1878 2150 -1
1878 2151 -1
1879 1879 2.6E1
1879 1880 -1
1879 1894 -1
1879 1895 -1
1879 1896 -1
1879 2118 -1
1879 2119 -1
1879 2120 -1
1879 2134 -1
1879 2135 -1
1879 2136 -1
1879 2150 -1
1879 2151 -1
1879 2152 -1
1880 1880 2.6E1
1880 1881 -1
1880 1895 -1
1880 1896 -1
1880 1897 -1
1880 2119 -1
1880 2120 -1
1880 2121 -1
1880 2135 -1
1880 2136 -1
1880 2137 -1
1880 2151 -1
1880 2152 -1
1880 2153 -1
1881 1881 2.6E1
1881 1882 -1
1881 1896 -1
1881 1897 -1
1881 1898 -1
1881 2120 -1
1881 2121 -1
1881 2122 -1
1881 2136 -1
1881 2137 -1
1881 2138 -1
1881 2152 -1
1881 2153 -1
1881 2154 -1
1882 1882 2.6E1
1882 1883 -1
1882 1897 -1
1882 1898 -1
1882 1899 -1
1882 2121 -1
1882 2122 -1
1882 2123 -1
1882 2137 -1
1882 2138 -1
1882 2139 -1
1882 2153 -1
1882 2154 -1
1882 2155 -1
1883 1883 2.6E1
1883 1884 -1
1883 1898 -1
1883 1899 -1
1883 1900 -1
1883 2122 -1
1883 2123 -1
1883 2124 -1
1883 2138 -1
1883 2139 -1
1883 2140 -1
1883 2154 -1
1883 2155 -1
1883 2156 -1
1884 1884 2.6E1
1884 1885 -1
1884 1899 -1
1884 1900 -1
1884 1901 -1
1884 2123 -1
1884 2124 -1
1884 2125 -1
1884 2139 -1
1884 2140 -1
1884 2141 -1
1884 2155 -1
1884 2156 -1
1884 2157 -1
1885 1885 2.6E1
1885 1886 -1
1885 1900 -1
1885 1901 -1
1885 1902 -1
1885 2124 -1
1885 2125 -1
1885 2126 -1
1885 2140 -1
1885 2141 -1
1885 2142 -1
1885 2156 -1
1885 2157 -1
1885 2158 -1
1886 1886 2.6E1
1886 1887 -1
1886 1901 -1
1886 1902 -1
1886 1903 -1
1886 2125 -1
1886 2126 -1
1886 2127 -1
1886 2141 -1
1886 2142 -1
1886 2143 -1
1886 2157 -1
1886 2158 -1
1886 2159 -1
1887 1887 2.6E1
1887 1888 -1
1887 1902 -1
1887 1903 -1
1887 1904 -1
1887 2126 -1
1887 2127 -1
1887 2128 -1
1887 2142 -1
1887 2143 -1
1887 2144 -1
1887 2158 -1
1887 2159 -1
1887 2160 -1
1888 1888 2.6E1
1888 1903 -1
1888 1904 -1
1888 2127 -1
1888 2128 -1
1888 2143 -1
1888 2144 -1
1888 2159 -1
1888 2160 -1
1889 1889 2.6E1
1889 1890 -1
1889 1905 -1
1889 1906 -1
1889 2129 -1
1889 2130 -1
1889 2145 -1
1889 2146 -1
1889 2161 -1
1889 2162 -1
1890 1890 2.6E1
1890 1891 -1
1890 1905 -1
1890 1906 -1
1890 1907 -1
1890 2129 -1
1890 2130 -1
1890 2131 -1
1890 2145 -1
1890 2146 -1
1890 2147 -1
1890 2161 -1
1890 2162 -1
1890 2163 -1
1891 1891 2.6E1
1891 1892 -1
1891 1906 -1
1891 1907 -1
1891 1908 -1
1891 2130 -1
1891 2131 -1
1891 2132 -1
1891 2146 -1
1891 2147 -1
1891 2148 -1
1891 2162 -1
1891 2163 -1
1891 2164 -1
1892 1892 2.6E1
1892 1893 -1
1892 1907 -1
1892 1908 -1
1892 1909 -1
1892 2131 -1
1892 2132 -1
1892 2133 -1
1892 2147 -1
1892 2148 -1
1892 2149 -1
1892 2163 -1
1892 2164 -1
1892 2165 -1
1893 1893 2.6E1
1893 1894 -1
1893 1908 -1
1893 1909 -1
1893 1910 -1
1893 2132 -1
1893 2133 -1
1893 2134 -1
1893 2148 -1
1893 2149 -1
1893 2150 -1
1893 2164 -1
1893 2165 -1
1893 2166 -1
1894 1894 2.6E1
1894 1895 -1
1894 1909 -1
1894 1910 -1
1894 1911 -1
1894 2133 -1
1894 2134 -1
1894 2135 -1
1894 2149 -1
1894 2150 -1
1894 2151 -1
1894 2165 -1
1894 2166 -1
1894 2167 -1
1895 1895 2.6E1
1895 1896 -1
1895 1910 -1
1895 1911 -1
1895 1912 -1
1895 2134 -1
1895 2135 -1
1895 2136 -1
1895 2150 -1
1895 2151 -1
1895 2152 -1
1895 2166 -1
1895 2167 -1
1895 2168 -1
1896 1896 2.6E1
1896 1897 -1
1896 1911 -1
1896 1912 -1
1896 1913 -1
1896 2135 -1
1896 2136 -1
1896 2137 -1
1896 2151 -1
1896 2152 -1
1896 2153 -1
1896 2167 -1
1896 2168 -1
1896 2169 -1
1897 1897 2.6E1
1897 1898 -1
1897 1912 -1
1897 1913 -1
1897 1914 -1
1897 2136 -1
1897 2137 -1
1897 2138 -1
1897 2152 -1
1897 2153 -1
1897 2154 -1
1897 2168 -1
1897 2169 -1
1897 2170 -1
1898 1898 2.6E1
1898 1899 -1
1898 1913 -1
1898 1914 -1
1898 1915 -1
1898 2137 -1
1898 2138 -1
1898 2139 -1
1898 2153 -1
1898 2154 -1
1898 2155 -1
1898 2169 -1
1898 2170 -1
1898 2171 -1
1899 1899 2.6E1
1899 1900 -1
1899 1914 -1
1899 1915 -1
1899 1916 -1
1899 2138 -1
1899 2139 -1
1899 2140 -1
1899 2154 -1
1899 2155 -1
1899 2156 -1
1899 2170 -1
1899 2171 -1
1899 2172 -1
1900 1900 2.6E1
1900 1901 -1
1900 1915 -1
1900 1916 -1
1900 1917 -1
1900 2139 -1
1900 2140 -1
1900 2141 -1
1900 2155 -1
1900 2156 -1
1900 2157 -1
1900 2171 -1
1900 2172 -1
1900 2173 -1
1901 1901 2.6E1
1901 1902 -1
1901 1916 -1
1901 1917 -1
1901 1918 -1
1901 2140 -1
1901 2141 -1
1901 2142 -1
1901 2156 -1
1901 2157 -1
1901 2158 -1
1901 2172 -1
1901 2173 -1
1901 2174 -1
1902 1902 2.6E1
1902 1903 -1
1902 1917 -1
1902 1918 -1
1902 1919 -1
1902 2141 -1
1902 2142 -1
1902 2143 -1
1902 2157 -1
1902 2158 -1
1902 2159 -1
1902 2173 -1
1902 2174 -1
1902 2175 -1
1903 1903 2.6E1
1903 1904 -1
1903 1918 -1
1903 1919 -1
1903 1920 -1
1903 2142 -1
1903 2143 -1
1903 2144 -1
1903 2158 -1
1903 2159 -1
1903 2160 -1
1903 2174 -1
1903 2175 -1
1903 2176 -1
1904 1904 2.6E1
1904 1919 -1
1904 1920 -1
1904 2143 -1
1904 2144 -1
1904 2159 -1
1904 2160 -1
1904 2175 -1
1904 2176 -1
1905 1905 2.6E1
1905 1906 -1
1905 1921 -1
1905 1922 -1
1905 2145 -1
1905 2146 -1
1905 2161 -1
1905 2162 -1
1905 2177 -1
1905 2178 -1
1906 1906 2.6E1
1906 1907 -1
1906 1921 -1
1906 1922 -1
1906 1923 -1
1906 2145 -1
1906 2146 -1
1906 2147 -1
1906 2161 -1
1906 2162 -1
1906 2163 -1
1906 2177 -1
1906 2178 -1
1906 2179 -1
1907 1907 2.6E1
1907 1908 -1
1907 1922 -1
1907 1923 -1
1907 1924 -1
1907 2146 -1
1907 2147 -1
1907 2148 -1
1907 2162 -1
1907 2163 -1
1907 2164 -1
1907 2178 -1
1907 2179 -1
1907 2180 -1
1908 1908 2.6E1
1908 1909 -1
1908 1923 -1
1908 1924 -1
1908 1925 -1
1908 2147 -1
1908 2148 -1
1908 2149 -1
1908 2163 -1
1908 2164 -1
1908 2165 -1
1908 2179 -1
1908 2180 -1
1908 2181 -1
1909 1909 2.6E1
1909 1910 -1
1909 1924 -1
1909 1925 -1
1909 1926 -1
1909 2148 -1
1909 2149 -1
1909 2150 -1
1909 2164 -1
1909 2165 -1
1909 2166 -1
1909 2180 -1
1909 2181 -1
1909 2182 -1
1910 1910 2.6E1
1910 1911 -1
1910 1925 -1
1910 1926 -1
1910 1927 -1
1910 2149 -1
1910 2150 -1
1910 2151 -1
1910 2165 -1
1910 2166 -1
1910 2167 -1
1910 2181 -1
1910 2182 -1
1910 2183 -1
1911 1911 2.6E1
1911 1912 -1
1911 1926 -1
1911 1927 -1
1911 1928 -1
1911 2150 -1
1911 2151 -1
1911 2152 -1
1911 2166 -1
1911 2167 -1
1911 2168 -1
1911 2182 -1
1911 2183 -1
1911 2184 -1
1912 1912 2.6E1
1912 1913 -1
1912 1927 -1
1912 1928 -1
1912 1929 -1
1912 2151 -1
1912 2152 -1
1912 2153 -1
1912 2167 -1
1912 2168 -1
1912 2169 -1
1912 2183 -1
1912 2184 -1
1912 2185 -1
1913 1913 2.6E1
1913 1914 -1
1913 1928 -1
1913 1929 -1
1913 1930 -1
1913 2152 -1
1913 2153 -1
1913 2154 -1
1913 2168 -1
1913 2169 -1
1913 2170 -1
1913 2184 -1
1913 2185 -1
1913 2186 -1
1914 1914 2.6E1
1914 1915 -1
1914 1929 -1
1914 1930 -1
1914 1931 -1
1914 2153 -1
1914 2154 -1
1914 2155 -1
1914 2169 -1
1914 2170 -1
1914 2171 -1
1914 2185 -1
1914 2186 -1
1914 2187 -1
1915 1915 2.6E1
1915 1916 -1
1915 1930 -1
1915 1931 -1
1915 1932 -1
1915 2154 -1
1915 2155 -1
1915 2156 -1
1915 2170 -1
1915 2171 -1
1915 2172 -1
1915 2186 -1
1915 2187 -1
1915 2188 -1
1916 1916 2.6E1
1916 1917 -1
1916 1931 -1
1916 1932 -1
1916 1933 -1
1916 2155 -1
1916 2156 -1
1916 2157 -1
1916 2171 -1
1916 2172 -1
1916 2173 -1
1916 2187 -1
1916 2188 -1
1916 2189 -1
1917 1917 2.6E1
1917 1918 -1
1917 1932 -1
1917 1933 -1
1917 1934 -1
1917 2156 -1
1917 2157 -1
1917 2158 -1
1917 2172 -1
1917 2173 -1
1917 2174 -1
1917 2188 -1
1917 2189 -1
1917 2190 -1
1918 1918 2.6E1
1918 1919 -1
1918 1933 -1
1918 1934 -1
1918 1935 -1
1918 2157 -1
1918 2158 -1
1918 2159 -1
1918 2173 -1
1918 2174 -1
1918 2175 -1
1918 2189 -1
1918 2190 -1
1918 2191 -1
1919 1919 2.6E1
1919 1920 -1
1919 1934 -1
1919 1935 -1
1919 1936 -1
1919 2158 -1
1919 2159 -1
1919 2160 -1
1919 2174 -1
1919 2175 -1
1919 2176 -1
1919 2190 -1
1919 2191 -1
1919 2192 -1
1920 1920 2.6E1
1920 1935 -1
1920 1936 -1
1920 2159 -1
1920 2160 -1
1920 2175 -1
1920 2176 -1
1920 2191 -1
1920 2192 -1
1921 1921 2.6E1
1921 1922 -1
1921 1937 -1
1921 1938 -1
1921 2161 -1
1921 2162 -1
1921 2177 -1
1921 2178 -1
1921 2193 -1
1921 2194 -1
1922 1922 2.6E1
1922 1923 -1
1922 1937 -1
1922 1938 -1
1922 1939 -1
1922 2161 -1
1922 2162 -1
1922 2163 -1
1922 2177 -1
1922 2178 -1
1922 2179 -1
1922 2193 -1
1922 2194 -1
1922 2195 -1
1923 1923 2.6E1
1923 1924 -1
1923 1938 -1
1923 1939 -1
1923 1940 -1
1923 2162 -1
1923 2163 -1
1923 2164 -1
1923 2178 -1
1923 2179 -1
1923 2180 -1
1923 2194 -1
1923 2195 -1
1923 2196 -1
1924 1924 2.6E1
1924 1925 -1
1924 1939 -1
1924 1940 -1
1924 1941 -1
1924 2163 -1
1924 2164 -1
1924 2165 -1
1924 2179 -1
1924 2180 -1
1924 2181 -1
1924 2195 -1
1924 2196 -1
1924 2197 -1
1925 1925 2.6E1
1925 1926 -1
1925 1940 -1
1925 1941 -1
1925 1942 -1
1925 2164 -1
1925 2165 -1
1925 2166 -1
1925 2180 -1
1925 2181 -1
1925 2182 -1
1925 2196 -1
1925 2197 -1
1925 2198 -1
1926 1926 2.6E1
1926 1927 -1
1926 1941 -1
1926 1942 -1
1926 1943 -1
1926 2165 -1
1926 2166 -1
1926 2167 -1
1926 2181 -1
1926 2182 -1
1926 2183 -1
1926 2197 -1
1926 2198 -1
1926 2199 -1
1927 1927 2.6E1
1927 1928 -1
1927 1942 -1
1927 1943 -1
1927 1944 -1
1927 2166 -1
1927 2167 -1
1927 2168 -1
1927 2182 -1
1927 2183 -1
1927 2184 -1
1927 2198 -1
1927 2199 -1
1927 2200 -1
1928 1928 2.6E1
1928 1929 -1
1928 1943 -1
1928 1944 -1
1928 1945 -1
1928 2167 -1
1928 2168 -1
1928 2169 -1
1928 2183 -1
1928 2184 -1
1928 2185 -1
1928 2199 -1
1928 2200 -1
1928 2201 -1
1929 1929 2.6E1
1929 1930 -1
1929 1944 -1
1929 1945 -1
1929 1946 -1
1929 2168 -1
1929 2169 -1
1929 2170 -1
1929 2184 -1
1929 2185 -1
1929 2186 -1
1929 2200 -1
1929 2201 -1
1929 2202 -1
1930 1930 2.6E1
1930 1931 -1
1930 1945 -1
1930 1946 -1
1930 1947 -1
1930 2169 -1
1930 2170 -1
1930 2171 -1
1930 2185 -1
1930 2186 -1
1930 2187 -1
1930 2201 -1
1930 2202 -1
1930 2203 -1
1931 1931 2.6E1
1931 1932 -1
1931 1946 -1
1931 1947 -1
1931 1948 -1
1931 2170 -1
1931 2171 -1
1931 2172 -1
1931 2186 -1
1931 2187 -1
1931 2188 -1
1931 2202 -1
1931 2203 -1
1931 2204 -1
1932 1932 2.6E1
1932 1933 -1
1932 1947 -1
1932 1948 -1
1932 1949 -1
1932 2171 -1
1932 2172 -1
1932 2173 -1
1932 2187 -1
1932 2188 -1
1932 2189 -1
1932 2203 -1
1932 2204 -1
1932 2205 -1
1933 1933 2.6E1
1933 1934 -1
1933 1948 -1
1933 1949 -1
1933 1950 -1
1933 2172 -1
1933 2173 -1
1933 2174 -1
1933 2188 -1
1933 2189 -1
1933 2190 -1
1933 2204 -1
1933 2205 -1
1933 2206 -1
1934 1934 2.6E1
1934 1935 -1
1934 1949 -1
1934 1950 -1
1934 1951 -1
1934 2173 -1
1934 2174 -1
1934 2175 -1
1934 2189 -1
1934 2190 -1
1934 2191 -1
1934 2205 -1
1934 2206 -1
1934 2207 -1
1935 1935 2.6E1
1935 1936 -1
1935 1950 -1
1935 1951 -1
1935 1952 -1
1935 2174 -1
1935 2175 -1
1935 2176 -1
1935 2190 -1
1935 2191 -1
1935 2192 -1
1935 2206 -1
1935 2207 -1
1935 2208 -1
1936 1936 2.6E1
1936 1951 -1
1936 1952 -1
1936 2175 -1
1936 2176 -1
1936 2191 -1
1936 2192 -1
1936 2207 -1
1936 2208 -1
1937 1937 2.6E1
1937 1938 -1
1937 1953 -1
1937 1954 -1
1937 2177 -1
1937 2178 -1
1937 2193 -1
1937 2194 -1
1937 2209 -1
1937 2210 -1
1938 1938 2.6E1
1938 1939 -1
1938 1953 -1
1938 1954 -1
1938 1955 -1
1938 2177 -1
1938 2178 -1
1938 2179 -1
1938 2193 -1
1938 2194 -1
1938 2195 -1
1938 2209 -1
1938 2210 -1
1938 2211 -1
1939 1939 2.6E1
1939 1940 -1
1939 1954 -1
1939 1955 -1
1939 1956 -1
1939 2178 -1
1939 2179 -1
1939 2180 -1
1939 2194 -1
1939 2195 -1
1939 2196 -1
1939 2210 -1
1939 2211 -1
1939 2212 -1
1940 1940 2.6E1
1940 1941 -1
1940 1955 -1
1940 1956 -1
1940 1957 -1
1940 2179 -1
1940 2180 -1
1940 2181 -1
1940 2195 -1
1940 2196 -1
1940 2197 -1
1940 2211 -1
1940 2212 -1
1940 2213 -1
1941 1941 2.6E1
1941 1942 -1
1941 1956 -1
1941 1957 -1
1941 1958 -1
1941 2180 -1
1941 2181 -1
1941 2182 -1
1941 2196 -1
1941 2197 -1
1941 2198 -1
1941 2212 -1
1941 2213 -1
1941 2214 -1
1942 1942 2.6E1
1942 1943 -1
1942 1957 -1
1942 1958 -1
1942 1959 -1
1942 2181 -1
1942 2182 -1
1942 2183 -1
1942 2197 -1
1942 2198 -1
1942 2199 -1
1942 2213 -1
1942 2214 -1
1942 2215 -1
1943 1943 2.6E1
1943 1944 -1
1943 1958 -1
1943 1959 -1
1943 1960 -1
1943 2182 -1
1943 2183 -1
1943 2184 -1
1943 2198 -1
1943 2199 -1
1943 2200 -1
1943 2214 -1
1943 2215 -1
1943 2216 -1
1944 1944 2.6E1
1944 1945 -1
1944 1959 -1
1944 1960 -1
1944 1961 -1
1944 2183 -1
1944 2184 -1
1944 2185 -1
1944 2199 -1
1944 2200 -1
1944 2201 -1
1944 2215 -1
1944 2216 -1
1944 2217 -1
1945 1945 2.6E1
1945 1946 -1
1945 1960 -1
1945 1961 -1
1945 1962 -1
1945 2184 -1
1945 2185 -1
1945 2186 -1
1945 2200 -1
1945 2201 -1
1945 2202 -1
1945 2216 -1
1945 2217 -1
1945 2218 -1
1946 1946 2.6E1
1946 1947 -1
1946 1961 -1
1946 1962 -1
1946 1963 -1
1946 2185 -1
1946 2186 -1
1946 2187 -1
1946 2201 -1
1946 2202 -1
1946 2203 -1
1946 2217 -1
1946 2218 -1
1946 2219 -1
1947 1947 2.6E1
1947 1948 -1
1947 1962 -1
1947 1963 -1
1947 1964 -1
1947 2186 -1
1947 2187 -1
1947 2188 -1
1947 2202 -1
1947 2203 -1
1947 2204 -1
1947 2218 -1
1947 2219 -1
1947 2220 -1
1948 1948 2.6E1
1948 1949 -1
1948 1963 -1
1948 1964 -1
1948 1965 -1
1948 2187 -1
1948 2188 -1
1948 2189 -1
1948 2203 -1
1948 2204 -1
1948 2205 -1
1948 2219 -1
1948 2220 -1
1948 2221 -1
1949 1949 2.6E1
1949 1950 -1
1949 1964 -1
1949 1965 -1
1949 1966 -1
1949 2188 -1
1949 2189 -1
1949 2190 -1
1949 2204 -1
1949 2205 -1
1949 2206 -1
1949 2220 -1
1949 2221 -1
1949 2222 -1
1950 1950 2.6E1
1950 1951 -1
1950 1965 -1
1950 1966 -1
1950 1967 -1
1950 2189 -1
1950 2190 -1
1950 2191 -1
1950 2205 -1
1950 2206 -1
1950 2207 -1
1950 2221 -1
1950 2222 -1
1950 2223 -1
1951 1951 2.6E1
1951 1952 -1
1951 1966 -1
1951 1967 -1
1951 1968 -1
1951 2190 -1
1951 2191 -1
1951 2192 -1
1951 2206 -1
1951 2207 -1
1951 2208 -1
1951 2222 -1
1951 2223 -1
1951 2224 -1
1952 1952 2.6E1
1952 1967 -1
1952 1968 -1
1952 2191 -1
1952 2192 -1
1952 2207 -1
1952 2208 -1
1952 2223 -1
1952 2224 -1
1953 1953 2.6E1
1953 1954 -1
1953 1969 -1
1953 1970 -1
1953 2193 -1
1953 2194 -1
1953 2209 -1
1953 2210 -1
1953 2225 -1
1953 2226 -1
1954 1954 2.6E1
1954 1955 -1
1954 1969 -1
1954 1970 -1
1954 1971 -1
1954 2193 -1
1954 2194 -1
1954 2195 -1
1954 2209 -1
1954 2210 -1
1954 2211 -1
1954 2225 -1
1954 2226 -1
1954 2227 -1
1955 1955 2.6E1
1955 1956 -1
1955 1970 -1
1955 1971 -1
1955 1972 -1
1955 2194 -1
1955 2195 -1
1955 2196 -1
1955 2210 -1
1955 2211 -1
1955 2212 -1
1955 2226 -1
1955 2227 -1
1955 2228 -1
1956 1956 2.6E1
1956 1957 -1
1956 1971 -1
1956 1972 -1
1956 1973 -1
1956 2195 -1
1956 2196 -1
1956 2197 -1
1956 2211 -1
1956 2212 -1
1956 2213 -1
1956 2227 -1
1956 2228 -1
1956 2229 -1
1957 1957 2.6E1
1957 1958 -1
1957 1972 -1
1957 1973 -1
1957 1974 -1
1957 2196 -1
1957 2197 -1
1957 2198 -1
1957 2212 -1
1957 2213 -1
1957 2214 -1
1957 2228 -1
1957 2229 -1
1957 2230 -1
1958 1958 2.6E1
1958 1959 -1
1958 1973 -1
1958 1974 -1
1958 1975 -1
1958 2197 -1
1958 2198 -1
1958 2199 -1
1958 2213 -1
1958 2214 -1
1958 2215 -1
1958 2229 -1
1958 2230 -1
1958 2231 -1
1959 1959 2.6E1
1959 1960 -1
1959 1974 -1
1959 1975 -1
1959 1976 -1
1959 2198 -1
1959 2199 -1
1959 2200 -1
1959 2214 -1
1959 2215 -1
1959 2216 -1
1959 2230 -1
1959 2231 -1
1959 2232 -1
1960 1960 2.6E1
1960 1961 -1
1960 1975 -1
1960 1976 -1
1960 1977 -1
1960 2199 -1
1960 2200 -1
1960 2201 -1
1960 2215 -1
1960 2216 -1
1960 2217 -1
1960 2231 -1
1960 2232 -1
1960 2233 -1
1961 1961 2.6E1
1961 1962 -1
1961 1976 -1
1961 1977 -1
1961 1978 -1
1961 2200 -1
1961 2201 -1
1961 2202 -1
1961 2216 -1
1961 2217 -1
1961 2218 -1
1961 2232 -1
1961 2233 -1
1961 2234 -1
1962 1962 2.6E1
1962 1963 -1
1962 1977 -1
1962 1978 -1
1962 1979 -1
1962 2201 -1
1962 2202 -1
1962 2203 -1
1962 2217 -1
1962 2218 -1
1962 2219 -1
1962 2233 -1
1962 2234 -1
1962 2235 -1
1963 1963 2.6E1
1963 1964 -1
1963 1978 -1
1963 1979 -1
1963 1980 -1
1963 2202 -1
1963 2203 -1
1963 2204 -1
1963 2218 -1
1963 2219 -1
1963 2220 -1
1963 2234 -1
1963 2235 -1
1963 2236 -1
1964 1964 2.6E1
1964 1965 -1
1964 1979 -1
1964 1980 -1
1964 1981 -1
1964 2203 -1
1964 2204 -1
1964 2205 -1
1964 2219 -1
1964 2220 -1
1964 2221 -1
1964 2235 -1
1964 2236 -1
1964 2237 -1
1965 1965 2.6E1
1965 1966 -1
1965 1980 -1
1965 1981 -1
1965 1982 -1
1965 2204 -1
1965 2205 -1
1965 2206 -1
1965 2220 -1
1965 2221 -1
1965 2222 -1
1965 2236 -1
1965 2237 -1
1965 2238 -1
1966 1966 2.6E1
1966 1967 -1
1966 1981 -1
1966 1982 -1
1966 1983 -1
1966 2205 -1
1966 2206 -1
1966 2207 -1
1966 2221 -1
1966 2222 -1
1966 2223 -1
1966 2237 -1
1966 2238 -1
1966 2239 -1
1967 1967 2.6E1
1967 1968 -1
1967 1982 -1
1967 1983 -1
1967 1984 -1
1967 2206 -1
1967 2207 -1
1967 2208 -1
1967 2222 -1
1967 2223 -1
1967 2224 -1
1967 2238 -1
1967 2239 -1
1967 2240 -1
1968 1968 2.6E1
1968 1983 -1
1968 1984 -1
1968 2207 -1
1968 2208 -1
1968 2223 -1
1968 2224 -1
1968 2239 -1
1968 2240 -1
1969 1969 2.6E1
1969 1970 -1
1969 1985 -1
1969 1986 -1
1969 2209 -1
1969 2210 -1
1969 2225 -1
1969 2226 -1
1969 2241 -1
1969 2242 -1
1970 1970 2.6E1
1970 1971 -1
1970 1985 -1
1970 1986 -1
1970 1987 -1
1970 2209 -1
1970 2210 -1
1970 2211 -1
1970 2225 -1
1970 2226 -1
1970 2227 -1
1970 2241 -1
1970 2242 -1
1970 2243 -1
1971 1971 2.6E1
1971 1972 -1
1971 1986 -1
1971 1987 -1
1971 1988 -1
1971 2210 -1
1971 2211 -1
1971 2212 -1
1971 2226 -1
1971 2227 -1
1971 2228 -1
1971 2242 -1
1971 2243 -1
1971 2244 -1
1972 1972 2.6E1
1972 1973 -1
1972 1987 -1
1972 1988 -1
1972 1989 -1
1972 2211 -1
1972 2212 -1
1972 2213 -1
1972 2227 -1
1972 2228 -1
1972 2229 -1
1972 2243 -1
1972 2244 -1
1972 2245 -1
1973 1973 2.6E1
1973 1974 -1
1973 1988 -1
1973 1989 -1
1973 1990 -1
1973 2212 -1
1973 2213 -1
1973 2214 -1
1973 2228 -1
1973 2229 -1
1973 2230 -1
1973 2244 -1
1973 2245 -1
1973 2246 -1
1974 1974 2.6E1
1974 1975 -1
1974 1989 -1
1974 1990 -1
1974 1991 -1
1974 2213 -1
1974 2214 -1
1974 2215 -1
1974 2229 -1
1974 2230 -1
1974 2231 -1
1974 2245 -1
1974 2246 -1
1974 2247 -1
1975 1975 2.6E1
1975 1976 -1
1975 1990 -1
1975 1991 -1
1975 1992 -1
1975 2214 -1
1975 2215 -1
1975 2216 -1
1975 2230 -1
1975 2231 -1
1975 2232 -1
1975 2246 -1
1975 2247 -1
1975 2248 -1
1976 1976 2.6E1
1976 1977 -1
1976 1991 -1
1976 1992 -1
1976 1993 -1
1976 2215 -1
1976 2216 -1
1976 2217 -1
1976 2231 -1
1976 2232 -1
1976 2233 -1
1976 2247 -1
1976 2248 -1
1976 2249 -1
1977 1977 2.6E1
1977 1978 -1
1977 1992 -1
1977 1993 -1
1977 1994 -1
1977 2216 -1
1977 2217 -1
1977 2218 -1
1977 2232 -1
1977 2233 -1
1977 2234 -1
1977 2248 -1
1977 2249 -1
1977 2250 -1
1978 1978 2.6E1
1978 1979 -1
1978 1993 -1
1978 1994 -1
1978 1995 -1
1978 2217 -1
1978 2218 -1
1978 2219 -1
1978 2233 -1
1978 2234 -1
1978 2235 -1
1978 2249 -1
1978 2250 -1
1978 2251 -1
1979 1979 2.6E1
1979 1980 -1
1979 1994 -1
1979 1995 -1
1979 1996 -1
1979 2218 -1
1979 2219 -1
1979 2220 -1
1979 2234 -1
1979 2235 -1
1979 2236 -1
1979 2250 -1
1979 2251 -1
1979 2252 -1
1980 1980 2.6E1
1980 1981 -1
1980 1995 -1
1980 1996 -1
1980 1997 -1
1980 2219 -1
1980 2220 -1
1980 2221 -1
1980 2235 -1
1980 2236 -1
1980 2237 -1
1980 2251 -1
1980 2252 -1
1980 2253 -1
1981 1981 2.6E1
1981 1982 -1
1981 1996 -1
1981 1997 -1
1981 1998 -1
1981 2220 -1
1981 2221 -1
1981 2222 -1
1981 2236 -1
1981 2237 -1
1981 2238 -1
1981 2252 -1
1981 2253 -1
1981 2254 -1
1982 1982 2.6E1
1982 1983 -1
1982 1997 -1
1982 1998 -1
1982 1999 -1
1982 2221 -1
1982 2222 -1
1982 2223 -1
1982 2237 -1
1982 2238 -1
1982 2239 -1
1982 2253 -1
1982 2254 -1
1982 2255 -1
1983 1983 2.6E1
1983 1984 -1
1983 1998 -1
1983 1999 -1
1983 2000 -1
1983 2222 -1
1983 2223 -1
1983 2224 -1
1983 2238 -1
1983 2239 -1
1983 2240 -1
1983 2254 -1
1983 2255 -1
1983 2256 -1
1984 1984 2.6E1
1984 1999 -1
1984 2000 -1
1984 2223 -1
1984 2224 -1
1984 2239 -1
1984 2240 -1
1984 2255 -1
1984 2256 -1
1985 1985 2.6E1
1985 1986 -1
1985 2001 -1
1985 2002 -1
1985 2225 -1
1985 2226 -1
1985 2241 -1
1985 2242 -1
1985 2257 -1
1985 2258 -1
1986 1986 2.6E1
1986 1987 -1
1986 2001 -1
1986 2002 -1
1986 2003 -1
1986 2225 -1
1986 2226 -1
1986 2227 -1
1986 2241 -1
1986 2242 -1
1986 2243 -1
1986 2257 -1
1986 2258 -1
1986 2259 -1
1987 1987 2.6E1
1987 1988 -1
1987 2002 -1
1987 2003 -1
1987 2004 -1
1987 2226 -1
1987 2227 -1
1987 2228 -1
1987 2242 -1
1987 2243 -1
1987 2244 -1
1987 2258 -1
1987 2259 -1
1987 2260 -1
1988 1988 2.6E1
1988 1989 -1
1988 2003 -1
1988 2004 -1
1988 2005 -1
1988 2227 -1
1988 2228 -1
1988 2229 -1
1988 2243 -1
1988 2244 -1
1988 2245 -1
1988 2259 -1
1988 2260 -1
1988 2261 -1
1989 1989 2.6E1
1989 1990 -1
1989 2004 -1
1989 2005 -1
1989 2006 -1
1989 2228 -1
1989 2229 -1
1989 2230 -1
1989 2244 -1
1989 2245 -1
1989 2246 -1
1989 2260 -1
1989 2261 -1
1989 2262 -1
1990 1990 2.6E1
1990 1991 -1
1990 2005 -1
1990 2006 -1
1990 2007 -1
1990 2229 -1
1990 2230 -1
1990 2231 -1
1990 2245 -1
1990 2246 -1
1990 2247 -1
1990 2261 -1
1990 2262 -1
1990 2263 -1
1991 1991 2.6E1
1991 1992 -1
1991 2006 -1
1991 2007 -1
1991 2008 -1
1991 2230 -1
1991 2231 -1
1991 2232 -1
1991 2246 -1
1991 2247 -1
1991 2248 -1
1991 2262 -1
1991 2263 -1
1991 2264 -1
1992 1992 2.6E1
1992 1993 -1
1992 2007 -1
1992 2008 -1
1992 2009 -1
1992 2231 -1
1992 2232 -1
1992 2233 -1
1992 2247 -1
1992 2248 -1
1992 2249 -1
1992 2263 -1
1992 2264 -1
1992 2265 -1
1993 1993 2.6E1
1993 1994 -1
1993 2008 -1
1993 2009 -1
1993 2010 -1
1993 2232 -1
1993 2233 -1
1993 2234 -1
1993 2248 -1
1993 2249 -1
1993 2250 -1
1993 2264 -1
1993 2265 -1
1993 2266 -1
1994 1994 2.6E1
1994 1995 -1
1994 2009 -1
1994 2010 -1
1994 2011 -1
1994 2233 -1
1994 2234 -1
1994 2235 -1
1994 2249 -1
1994 2250 -1
1994 2251 -1
1994 2265 -1
1994 2266 -1
1994 2267 -1
1995 1995 2.6E1
1995 1996 -1
1995 2010 -1
1995 2011 -1
1995 2012 -1
1995 2234 -1
1995 2235 -1
1995 2236 -1
1995 2250 -1
1995 2251 -1
1995 2252 -1
1995 2266 -1
1995 2267 -1
1995 2268 -1
1996 1996 2.6E1
1996 1997 -1
1996 2011 -1
1996 2012 -1
1996 2013 -1
1996 2235 -1
1996 2236 -1
1996 2237 -1
1996 2251 -1
1996 2252 -1
1996 2253 -1
1996 2267 -1
1996 2268 -1
1996 2269 -1
1997 1997 2.6E1
1997 1998 -1
1997 2012 -1
1997 2013 -1
1997 2014 -1
1997 2236 -1
1997 2237 -1
1997 2238 -1
1997 2252 -1
1997 2253 -1
1997 2254 -1
1997 2268 -1
1997 2269 -1
1997 2270 -1
1998 1998 2.6E1
1998 1999 -1
1998 2013 -1
1998 2014 -1
1998 2015 -1
1998 2237 -1
1998 2238 -1
1998 2239 -1
1998 2253 -1
1998 2254 -1
1998 2255 -1
1998 2269 -1
1998 2270 -1
1998 2271 -1
1999 1999 2.6E1
1999 2000 -1
1999 2014 -1
1999 2015 -1
1999 2016 -1
1999 2238 -1
1999 2239 -1
1999 2240 -1
1999 2254 -1
1999 2255 -1
1999 2256 -1
1999 2270 -1
1999 2271 -1
1999 2272 -1
2000 2000 2.6E1
2000 2015 -1
2000 2016 -1
2000 2239 -1
2000 2240 -1
2000 2255 -1
2000 2256 -1
2000 2271 -1
2000 2272 -1
2001 2001 2.6E1
2001 2002 -1
2001 2017 -1
2001 2018 -1
2001 2241 -1
2001 2242 -1
2001 2257 -1
2001 2258 -1
2001 2273 -1
2001 2274 -1
2002 2002 2.6E1
2002 2003 -1
2002 2017 -1
2002 2018 -1
2002 2019 -1
2002 2241 -1
2002 2242 -1
2002 2243 -1
2002 2257 -1
2002 2258 -1
2002 2259 -1
2002 2273 -1
2002 2274 -1
2002 2275 -1
2003 2003 2.6E1
2003 2004 -1
2003 2018 -1
2003 2019 -1
2003 2020 -1
2003 2242 -1
2003 2243 -1
2003 2244 -1
2003 2258 -1
2003 2259 -1
2003 2260 -1
2003 2274 -1
2003 2275 -1
2003 2276 -1
2004 2004 2.6E1
2004 2005 -1
2004 2019 -1
2004 2020 -1
2004 2021 -1
2004 2243 -1
2004 2244 -1
2004 2245 -1
2004 2259 -1
2004 2260 -1
2004 2261 -1
2004 2275 -1
2004 2276 -1
2004 2277 -1
2005 2005 2.6E1
2005 2006 -1
2005 2020 -1
2005 2021 -1
2005 2022 -1
2005 2244 -1
2005 2245 -1
2005 2246 -1
2005 2260 -1
2005 2261 -1
2005 2262 -1
2005 2276 -1
2005 2277 -1
2005 2278 -1
2006 2006 2.6E1
2006 2007 -1
2006 2021 -1
2006 2022 -1
2006 2023 -1
2006 2245 -1
2006 2246 -1
2006 2247 -1
2006 2261 -1
2006 2262 -1
2006 2263 -1
2006 2277 -1
2006 2278 -1
2006 2279 -1
2007 2007 2.6E1
2007 2008 -1
2007 2022 -1
2007 2023 -1
2007 2024 -1
2007 2246 -1
2007 2247 -1
2007 2248 -1
2007 2262 -1
2007 2263 -1
2007 2264 -1
2007 2278 -1
2007 2279 -1
2007 2280 -1
2008 2008 2.6E1
2008 2009 -1
2008 2023 -1
2008 2024 -1
2008 2025 -1
2008 2247 -1
2008 2248 -1
2008 2249 -1
2008 2263 -1
2008 2264 -1
2008 2265 -1
2008 2279 -1
2008 2280 -1
2008 2281 -1
2009 2009 2.6E1
2009 2010 -1
2009 2024 -1
2009 2025 -1
2009 2026 -1
2009 2248 -1
2009 2249 -1
2009 2250 -1
2009 2264 -1
2009 2265 -1
2009 2266 -1
2009 2280 -1
2009 2281 -1
2009 2282 -1
2010 2010 2.6E1
2010 2011 -1
2010 2025 -1
2010 2026 -1
2010 2027 -1
2010 2249 -1
2010 2250 -1
2010 2251 -1
2010 2265 -1
2010 2266 -1
2010 2267 -1
2010 2281 -1
2010 2282 -1
2010 2283 -1
2011 2011 2.6E1
2011 2012 -1
2011 2026 -1
2011 2027 -1
2011 2028 -1
2011 2250 -1
2011 2251 -1
2011 2252 -1
2011 2266 -1
2011 2267 -1
2011 2268 -1
2011 2282 -1
2011 2283 -1
2011 2284 -1
2012 2012 2.6E1
2012 2013 -1
2012 2027 -1
2012 2028 -1
2012 2029 -1
2012 2251 -1
2012 2252 -1
2012 2253 -1
2012 2267 -1
2012 2268 -1
2012 2269 -1
2012 2283 -1
2012 2284 -1
2012 2285 -1
2013 2013 2.6E1
2013 2014 -1
2013 2028 -1
2013 2029 -1
2013 2030 -1
2013 2252 -1
2013 2253 -1
2013 2254 -1
2013 2268 -1
2013 2269 -1
2013 2270 -1
2013 2284 -1
2013 2285 -1
2013 2286 -1
2014 2014 2.6E1
2014 2015 -1
2014 2029 -1
2014 2030 -1
2014 2031 -1
2014 2253 -1
2014 2254 -1
2014 2255 -1
2014 2269 -1
2014 2270 -1
2014 2271 -1
2014 2285 -1
2014 2286 -1
2014 2287 -1
2015 2015 2.6E1
2015 2016 -1
2015 2030 -1
2015 2031 -1
2015 2032 -1
2015 2254 -1
2015 2255 -1
2015 2256 -1
2015 2270 -1
2015 2271 -1
2015 2272 -1
2015 2286 -1
2015 2287 -1
2015 2288 -1
2016 2016 2.6E1
2016 2031 -1
2016 2032 -1
2016 2255 -1
2016 2256 -1
2016 2271 -1
2016 2272 -1
2016 2287 -1
2016 2288 -1
2017 2017 2.6E1
2017 2018 -1
2017 2033 -1
2017 2034 -1
2017 2257 -1
2017 2258 -1
2017 2273 -1
2017 2274 -1
2017 2289 -1
2017 2290 -1
2018 2018 2.6E1
2018 2019 -1
2018 2033 -1
2018 2034 -1
2018 2035 -1
2018 2257 -1
2018 2258 -1
2018 2259 -1
2018 2273 -1
2018 2274 -1
2018 2275 -1
2018 2289 -1
2018 2290 -1
2018 2291 -1
2019 2019 2.6E1
2019 2020 -1
2019 2034 -1
2019 2035 -1
2019 2036 -1
2019 2258 -1
2019 2259 -1
2019 2260 -1
2019 2274 -1
2019 2275 -1
2019 2276 -1
2019 2290 -1
2019 2291 -1
2019 2292 -1
2020 2020 2.6E1
2020 2021 -1
2020 2035 -1
2020 2036 -1
2020 2037 -1
2020 2259 -1
2020 2260 -1
2020 2261 -1
2020 2275 -1
2020 2276 -1
2020 2277 -1
2020 2291 -1
2020 2292 -1
2020 2293 -1
2021 2021 2.6E1
2021 2022 -1
2021 2036 -1
2021 2037 -1
2021 2038 -1
2021 2260 -1
2021 2261 -1
2021 2262 -1
2021 2276 -1
2021 2277 -1
2021 2278 -1
2021 2292 -1
2021 2293 -1
2021 2294 -1
2022 2022 2.6E1
2022 2023 -1
2022 2037 -1
2022 2038 -1
2022 2039 -1
2022 2261 -1
2022 2262 -1
2022 2263 -1
2022 2277 -1
2022 2278 -1
2022 2279 -1
2022 2293 -1
2022 2294 -1
2022 2295 -1
2023 2023 2.6E1
2023 2024 -1
2023 2038 -1
2023 2039 -1
2023 2040 -1
2023 2262 -1
2023 2263 -1
2023 2264 -1
2023 2278 -1
2023 2279 -1
2023 2280 -1
2023 2294 -1
2023 2295 -1
2023 2296 -1
2024 2024 2.6E1
2024 2025 -1
2024 2039 -1
2024 2040 -1
2024 2041 -1
2024 2263 -1
2024 2264 -1
2024 2265 -1
2024 2279 -1
2024 2280 -1
2024 2281 -1
2024 2295 -1
2024 2296 -1
2024 2297 -1
2025 2025 2.6E1
2025 2026 -1
2025 2040 -1
2025 2041 -1
2025 2042 -1
2025 2264 -1
2025 2265 -1
2025 2266 -1
2025 2280 -1
2025 2281 -1
2025 2282 -1
2025 2296 -1
2025 2297 -1
2025 2298 -1
2026 2026 2.6E1
2026 2027 -1
2026 2041 -1
2026 2042 -1
2026 2043 -1
2026 2265 -1
2026 2266 -1
2026 2267 -1
2026 2281 -1
2026 2282 -1
2026 2283 -1
2026 2297 -1
2026 2298 -1
2026 2299 -1
2027 2027 2.6E1
2027 2028 -1
2027 2042 -1
2027 2043 -1
2027 2044 -1
2027 2266 -1
2027 2267 -1
2027 2268 -1
2027 2282 -1
2027 2283 -1
2027 2284 -1
2027 2298 -1
2027 2299 -1
2027 2300 -1
2028 2028 2.6E1
2028 2029 -1
2028 2043 -1
2028 2044 -1
2028 2045 -1
2028 2267 -1
2028 2268 -1
2028 2269 -1
2028 2283 -1
2028 2284 -1
2028 2285 -1
2028 2299 -1
2028 2300 -1
2028 2301 -1
2029 2029 2.6E1
2029 2030 -1
2029 2044 -1
2029 2045 -1
2029 2046 -1
2029 2268 -1
2029 2269 -1
2029 2270 -1
2029 2284 -1
2029 2285 -1
2029 2286 -1
2029 2300 -1
2029 2301 -1
2029 2302 -1
2030 2030 2.6E1
2030 2031 -1
2030 2045 -1
2030 2046 -1
2030 2047 -1
2030 2269 -1
2030 2270 -1
2030 2271 -1
2030 2285 -1
2030 2286 -1
2030 2287 -1
2030 2301 -1
2030 2302 -1
2030 2303 -1
2031 2031 2.6E1
2031 2032 -1
2031 2046 -1
2031 2047 -1
2031 2048 -1
2031 2270 -1
2031 2271 -1
2031 2272 -1
2031 2286 -1
2031 2287 -1
2031 2288 -1
2031 2302 -1
2031 2303 -1
2031 2304 -1
2032 2032 2.6E1
2032 2047 -1
2032 2048 -1
2032 2271 -1
2032 2272 -1
2032 2287 -1
2032 2288 -1
2032 2303 -1
2032 2304 -1
2033 2033 2.6E1
2033 2034 -1
2033 2273 -1
2033 2274 -1
2033 2289 -1
2033 2290 -1
2034 2034 2.6E1
2034 2035 -1
2034 2273 -1
2034 2274 -1
2034 2275 -1
2034 2289 -1
2034 2290 -1
2034 2291 -1
2035 2035 2.6E1
2035 2036 -1
2035 2274 -1
2035 2275 -1
2035 2276 -1
2035 2290 -1
2035 2291 -1
2035 2292 -1
2036 2036 2.6E1
2036 2037 -1
2036 2275 -1
2036 2276 -1
2036 2277 -1
2036 2291 -1
2036 2292 -1
2036 2293 -1
2037 2037 2.6E1
2037 2038 -1
2037 2276 -1
2037 2277 -1
2037 2278 -1
2037 2292 -1
2037 2293 -1
2037 2294 -1
2038 2038 2.6E1
2038 2039 -1
2038 2277 -1
2038 2278 -1
2038 2279 -1
2038 2293 -1
2038 2294 -1
2038 2295 -1
2039 2039 2.6E1
2039 2040 -1
2039 2278 -1
2039 2279 -1
2039 2280 -1
2039 2294 -1
2039 2295 -1
2039 2296 -1
2040 2040 2.6E1
2040 2041 -1
2040 2279 -1
2040 2280 -1
2040 2281 -1
2040 2295 -1
2040 2296 -1
2040 2297 -1
2041 2041 2.6E1
2041 2042 -1
2041 2280 -1
2041 2281 -1
2041 2282 -1
2041 2296 -1
2041 2297 -1
2041 2298 -1
2042 2042 2.6E1
2042 2043 -1
2042 2281 -1
2042 2282 -1
2042 2283 -1
2042 2297 -1
2042 2298 -1
2042 2299 -1
2043 2043 2.6E1
2043 2044 -1
2043 2282 -1
2043 2283 -1
2043 2284 -1
2043 2298 -1
2043 2299 -1
2043 2300 -1
2044 2044 2.6E1
2044 2045 -1
2044 2283 -1
2044 2284 -1
2044 2285 -1
2044 2299 -1
2044 2300 -1
2044 2301 -1
2045 2045 2.6E1
2045 2046 -1
2045 2284 -1
2045 2285 -1
2045 2286 -1
2045 2300 -1
2045 2301 -1
2045 2302 -1
2046 2046 2.6E1
2046 2047 -1
2046 2285 -1
2046 2286 -1
2046 2287 -1
2046 2301 -1
2046 2302 -1
2046 2303 -1
2047 2047 2.6E1
2047 2048 -1
2047 2286 -1
2047 2287 -1
2047 2288 -1
2047 2302 -1
2047 2303 -1
2047 2304 -1
2048 2048 2.6E1
2048 2287 -1
2048 2288 -1
2048 2303 -1
2048 2304 -1
2049 2049 2.6E1
2049 2050 -1
2049 2065 -1
2049 2066 -1
2049 2305 -1
2049 2306 -1
2049 2321 -1
2049 2322 -1
2050 2050 2.6E1
2050 2051 -1
2050 2065 -1
2050 2066 -1
2050 2067 -1
2050 2305 -1
2050 2306 -1
2050 2307 -1
2050 2321 -1
2050 2322 -1
2050 2323 -1
2051 2051 2.6E1
2051 2052 -1
2051 2066 -1
2051 2067 -1
2051 2068 -1
2051 2306 -1
2051 2307 -1
2051 2308 -1
2051 2322 -1
2051 2323 -1
2051 2324 -1
2052 2052 2.6E1
2052 2053 -1
2052 2067 -1
2052 2068 -1
2052 2069 -1
2052 2307 -1
2052 2308 -1
2052 2309 -1
2052 2323 -1
2052 2324 -1
2052 2325 -1
2053 2053 2.6E1
2053 2054 -1
2053 2068 -1
2053 2069 -1
2053 2070 -1
2053 2308 -1
2053 2309 -1
2053 2310 -1
2053 2324 -1
2053 2325 -1
2053 2326 -1
2054 2054 2.6E1
2054 2055 -1
2054 2069 -1
2054 2070 -1
2054 2071 -1
2054 2309 -1
2054 2310 -1
2054 2311 -1
2054 2325 -1
2054 2326 -1
2054 2327 -1
2055 2055 2.6E1
2055 2056 -1
2055 2070 -1
2055 2071 -1
2055 2072 -1
2055 2310 -1
2055 2311 -1
2055 2312 -1
2055 2326 -1
2055 2327 -1
2055 2328 -1
2056 2056 2.6E1
2056 2057 -1
2056 2071 -1
2056 2072 -1
2056 2073 -1
2056 2311 -1
2056 2312 -1
2056 2313 -1
2056 2327 -1
2056 2328 -1
2056 2329 -1
2057 2057 2.6E1
2057 2058 -1
2057 2072 -1
2057 2073 -1
2057 2074 -1
2057 2312 -1
2057 2313 -1
2057 2314 -1
2057 2328 -1
2057 2329 -1
2057 2330 -1
2058 2058 2.6E1
2058 2059 -1
2058 2073 -1
2058 2074 -1
2058 2075 -1
2058 2313 -1
2058 2314 -1
2058 2315 -1
2058 2329 -1
2058 2330 -1
2058 2331 -1
2059 2059 2.6E1
2059 2060 -1
2059 2074 -1
2059 2075 -1
2059 2076 -1
2059 2314 -1
2059 2315 -1
2059 2316 -1
2059 2330 -1
2059 2331 -1
2059 2332 -1
2060 2060 2.6E1
2060 2061 -1
2060 2075 -1
2060 2076 -1
2060 2077 -1
2060 2315 -1
2060 2316 -1
2060 2317 -1
2060 2331 -1
2060 2332 -1
2060 2333 -1
2061 2061 2.6E1
2061 2062 -1
2061 2076 -1
2061 2077 -1
2061 2078 -1
2061 2316 -1
2061 2317 -1
2061 2318 -1
2061 2332 -1
2061 2333 -1
2061 2334 -1
2062 2062 2.6E1
2062 2063 -1
2062 2077 -1
2062 2078 -1
2062 2079 -1
2062 2317 -1
2062 2318 -1
2062 2319 -1
2062 2333 -1
2062 2334 -1
2062 2335 -1
2063 2063 2.6E1
2063 2064 -1
2063 2078 -1
2063 2079 -1
2063 2080 -1
2063 2318 -1
2063 2319 -1
2063 2320 -1
2063 2334 -1
2063 2335 -1
2063 2336 -1
2064 2064 2.6E1
2064 2079 -1
2064 2080 -1
2064 2319 -1
2064 2320 -1
2064 2335 -1
2064 2336 -1
2065 2065 2.6E1
2065 2066 -1
2065 2081 -1
2065 2082 -1
2065 2305 -1
2065 2306 -1
2065 2321 -1
2065 2322 -1
2065 2337 -1
2065 2338 -1
2066 2066 2.6E1
2066 2067 -1
2066 2081 -1
2066 2082 -1
2066 2083 -1
2066 2305 -1
2066 2306 -1
2066 2307 -1
2066 2321 -1
2066 2322 -1
2066 2323 -1
2066 2337 -1
2066 2338 -1
2066 2339 -1
2067 2067 2.6E1
2067 2068 -1
2067 2082 -1
2067 2083 -1
2067 2084 -1
2067 2306 -1
2067 2307 -1
2067 2308 -1
2067 2322 -1
2067 2323 -1
2067 2324 -1
2067 2338 -1
2067 2339 -1
2067 2340 -1
2068 2068 2.6E1
2068 2069 -1
2068 2083 -1
2068 2084 -1
2068 2085 -1
2068 2307 -1
2068 2308 -1
2068 2309 -1
2068 2323 -1
2068 2324 -1
2068 2325 -1
2068 2339 -1
2068 2340 -1
2068 2341 -1
2069 2069 2.6E1
2069 2070 -1
2069 2084 -1
2069 2085 -1
2069 2086 -1
2069 2308 -1
2069 2309 -1
2069 2310 -1
2069 2324 -1
2069 2325 -1
2069 2326 -1
2069 2340 -1
2069 2341 -1
2069 2342 -1
2070 2070 2.6E1
2070 2071 -1
2070 2085 -1
2070 2086 -1
2070 2087 -1
2070 2309 -1
2070 2310 -1
2070 2311 -1
2070 2325 -1
2070 2326 -1
2070 2327 -1
2070 2341 -1
2070 2342 -1
2070 2343 -1
2071 2071 2.6E1
2071 2072 -1
2071 2086 -1
2071 2087 -1
2071 2088 -1
2071 2310 -1
2071 2311 -1
2071 2312 -1
2071 2326 -1
2071 2327 -1
2071 2328 -1
2071 2342 -1
2071 2343 -1
2071 2344 -1
2072 2072 2.6E1
2072 2073 -1
2072 2087 -1
2072 2088 -1
2072 2089 -1
2072 2311 -1
2072 2312 -1
2072 2313 -1
2072 2327 -1
2072 2328 -1
2072 2329 -1
2072 2343 -1
2072 2344 -1
2072 2345 -1
2073 2073 2.6E1
2073 2074 -1
2073 2088 -1
2073 2089 -1
2073 2090 -1
2073 2312 -1
2073 2313 -1
2073 2314 -1
2073 2328 -1
2073 2329 -1
2073 2330 -1
2073 2344 -1
2073 2345 -1
2073 2346 -1
2074 2074 2.6E1
2074 2075 -1
2074 2089 -1
2074 2090 -1
2074 2091 -1
2074 2313 -1
2074 2314 -1
2074 2315 -1
2074 2329 -1
2074 2330 -1
2074 2331 -1
2074 2345 -1
2074 2346 -1
2074 2347 -1
2075 2075 2.6E1
2075 2076 -1
2075 2090 -1
2075 2091 -1
2075 2092 -1
2075 2314 -1
2075 2315 -1
2075 2316 -1
2075 2330 -1
2075 2331 -1
2075 2332 -1
2075 2346 -1
2075 2347 -1
2075 2348 -1
2076 2076 2.6E1
2076 2077 -1
2076 2091 -1
2076 2092 -1
2076 2093 -1
2076 2315 -1
2076 2316 -1
2076 2317 -1
2076 2331 -1
2076 2332 -1
2076 2333 -1
2076 2347 -1
2076 2348 -1
2076 2349 -1
2077 2077 2.6E1
2077 2078 -1
2077 2092 -1
2077 2093 -1
2077 2094 -1
2077 2316 -1
2077 2317 -1
2077 2318 -1
2077 2332 -1
2077 2333 -1
2077 2334 -1
2077 2348 -1
2077 2349 -1
2077 2350 -1
2078 2078 2.6E1
2078 2079 -1
2078 2093 -1
2078 2094 -1
2078 2095 -1
2078 2317 -1
2078 2318 -1
2078 2319 -1
2078 2333 -1
2078 2334 -1
2078 2335 -1
2078 2349 -1
2078 2350 -1
2078 2351 -1
2079 2079 2.6E1
2079 2080 -1
2079 2094 -1
2079 2095 -1
2079 2096 -1
2079 2318 -1
2079 2319 -1
2079 2320 -1
2079 2334 -1
2079 2335 -1
2079 2336 -1
2079 2350 -1
2079 2351 -1
2079 2352 -1
2080 2080 2.6E1
2080 2095 -1
2080 2096 -1
2080 2319 -1
2080 2320 -1
2080 2335 -1
2080 2336 -1
2080 2351 -1
2080 2352 -1
2081 2081 2.6E1
2081 2082 -1
2081 2097 -1
2081 2098 -1
2081 2321 -1
2081 2322 -1
2081 2337 -1
2081 2338 -1
2081 2353 -1
2081 2354 -1
2082 2082 2.6E1
2082 2083 -1
2082 2097 -1
2082 2098 -1
2082 2099 -1
2082 2321 -1
2082 2322 -1
2082 2323 -1
2082 2337 -1
2082 2338 -1
2082 2339 -1
2082 2353 -1
2082 2354 -1
2082 2355 -1
2083 2083 2.6E1
2083 2084 -1
2083 2098 -1
2083 2099 -1
2083 2100 -1
2083 2322 -1
2083 2323 -1
2083 2324 -1
2083 2338 -1
2083 2339 -1
2083 2340 -1
2083 2354 -1
2083 2355 -1
2083 2356 -1
2084 2084 2.6E1
2084 2085 -1
2084 2099 -1
2084 2100 -1
2084 2101 -1
2084 2323 -1
2084 2324 -1
2084 2325 -1
2084 2339 -1
2084 2340 -1
2084 2341 -1
2084 2355 -1
2084 2356 -1
2084 2357 -1
2085 2085 2.6E1
2085 2086 -1
2085 2100 -1
2085 2101 -1
2085 2102 -1
2085 2324 -1
2085 2325 -1
2085 2326 -1
2085 2340 -1
2085 2341 -1
2085 2342 -1
2085 2356 -1
2085 2357 -1
2085 2358 -1
2086 2086 2.6E1
2086 2087 -1
2086 2101 -1
2086 2102 -1
2086 2103 -1
2086 2325 -1
2086 2326 -1
2086 2327 -1
2086 2341 -1
2086 2342 -1
2086 2343 -1
2086 2357 -1
2086 2358 -1
2086 2359 -1
2087 2087 2.6E1
2087 2088 -1
2087 2102 -1
2087 2103 -1
2087 2104 -1
2087 2326 -1
2087 2327 -1
2087 2328 -1
2087 2342 -1
2087 2343 -1
2087 2344 -1
2087 2358 -1
2087 2359 -1
2087 2360 -1
2088 2088 2.6E1
2088 2089 -1
2088 2103 -1
2088 2104 -1
2088 2105 -1
2088 2327 -1
2088 2328 -1
2088 2329 -1
2088 2343 -1
2088 2344 -1
2088 2345 -1
2088 2359 -1
2088 2360 -1
2088 2361 -1
2089 2089 2.6E1
2089 2090 -1
2089 2104 -1
2089 2105 -1
2089 2106 -1
2089 2328 -1
2089 2329 -1
2089 2330 -1
2089 2344 -1
2089 2345 -1
2089 2346 -1
2089 2360 -1
2089 2361 -1
2089 2362 -1
2090 2090 2.6E1
2090 2091 -1
2090 2105 -1
2090 2106 -1
2090 2107 -1
2090 2329 -1
2090 2330 -1
2090 2331 -1
2090 2345 -1
2090 2346 -1
2090 2347 -1
2090 2361 -1
2090 2362 -1
2090 2363 -1
2091 2091 2.6E1
2091 2092 -1
2091 2106 -1
2091 2107 -1
2091 2108 -1
2091 2330 -1
2091 2331 -1
2091 2332 -1
2091 2346 -1
2091 2347 -1
2091 2348 -1
2091 2362 -1
2091 2363 -1
2091 2364 -1
2092 2092 2.6E1
2092 2093 -1
2092 2107 -1
2092 2108 -1
2092 2109 -1
2092 2331 -1
2092 2332 -1
2092 2333 -1
2092 2347 -1
2092 2348 -1
2092 2349 -1
2092 2363 -1
2092 2364 -1
2092 2365 -1
2093 2093 2.6E1
2093 2094 -1
2093 2108 -1
2093 2109 -1
2093 2110 -1
2093 2332 -1
2093 2333 -1
2093 2334 -1
2093 2348 -1
2093 2349 -1
2093 2350 -1
2093 2364 -1
2093 2365 -1
2093 2366 -1
2094 2094 2.6E1
2094 2095 -1
2094 2109 -1
2094 2110 -1
2094 2111 -1
2094 2333 -1
2094 2334 -1
2094 2335 -1
2094 2349 -1
2094 2350 -1
2094 2351 -1
2094 2365 -1
2094 2366 -1
2094 2367 -1
2095 2095 2.6E1
2095 2096 -1
2095 2110 -1
2095 2111 -1
2095 2112 -1
2095 2334 -1
2095 2335 -1
2095 2336 -1
2095 2350 -1
2095 2351 -1
2095 2352 -1
2095 2366 -1
2095 2367 -1
2095 2368 -1
2096 2096 2.6E1
2096 2111 -1
2096 2112 -1
2096 2335 -1
2096 2336 -1
2096 2351 -1
2096 2352 -1
2096 2367 -1
2096 2368 -1
2097 2097 2.6E1
2097 2098 -1
2097 2113 -1
2097 2114 -1
2097 2337 -1
2097 2338 -1
2097 2353 -1
2097 2354 -1
2097 2369 -1
2097 2370 -1
2098 2098 2.6E1
2098 2099 -1
2098 2113 -1
2098 2114 -1
2098 2115 -1
2098 2337 -1
2098 2338 -1
2098 2339 -1
2098 2353 -1
2098 2354 -1
2098 2355 -1
2098 2369 -1
2098 2370 -1
2098 2371 -1
2099 2099 2.6E1
2099 2100 -1
2099 2114 -1
2099 2115 -1
2099 2116 -1
2099 2338 -1
2099 2339 -1
2099 2340 -1
2099 2354 -1
2099 2355 -1
2099 2356 -1
2099 2370 -1
2099 2371 -1
2099 2372 -1
2100 2100 2.6E1
2100 2101 -1
2100 2115 -1
2100 2116 -1
2100 2117 -1
2100 2339 -1
2100 2340 -1
2100 2341 -1
2100 2355 -1
2100 2356 -1
2100 2357 -1
2100 2371 -1
2100 2372 -1
2100 2373 -1
2101 2101 2.6E1
2101 2102 -1
2101 2116 -1
2101 2117 -1
2101 2118 -1
2101 2340 -1
2101 2341 -1
2101 2342 -1
2101 2356 -1
2101 2357 -1
2101 2358 -1
2101 2372 -1
2101 2373 -1
2101 2374 -1
2102 2102 2.6E1
2102 2103 -1
2102 2117 -1
2102 2118 -1
2102 2119 -1
2102 2341 -1
2102 2342 -1
2102 2343 -1
2102 2357 -1
2102 2358 -1
2102 2359 -1
2102 2373 -1
2102 2374 -1
2102 2375 -1
2103 2103 2.6E1
2103 2104 -1
2103 2118 -1
2103 2119 -1
2103 2120 -1
2103 2342 -1
2103 2343 -1
2103 2344 -1
2103 2358 -1
2103 2359 -1
2103 2360 -1
2103 2374 -1
2103 2375 -1
2103 2376 -1
2104 2104 2.6E1
2104 2105 -1
2104 2119 -1
2104 2120 -1
2104 2121 -1
2104 2343 -1
2104 2344 -1
2104 2345 -1
2104 2359 -1
2104 2360 -1
2104 2361 -1
2104 2375 -1
2104 2376 -1
2104 2377 -1
2105 2105 2.6E1
2105 2106 -1
2105 2120 -1
2105 2121 -1
2105 2122 -1
2105 2344 -1
2105 2345 -1
2105 2346 -1
2105 2360 -1
2105 2361 -1
2105 2362 -1
2105 2376 -1
2105 2377 -1
2105 2378 -1
2106 2106 2.6E1
2106 2107 -1
2106 2121 -1
2106 2122 -1
2106 2123 -1
2106 2345 -1
2106 2346 -1
2106 2347 -1
2106 2361 -1
2106 2362 -1
2106 2363 -1
2106 2377 -1
2106 2378 -1
2106 2379 -1
2107 2107 2.6E1
2107 2108 -1
2107 2122 -1
2107 2123 -1
2107 2124 -1
2107 2346 -1
2107 2347 -1
2107 2348 -1
2107 2362 -1
2107 2363 -1
2107 2364 -1
2107 2378 -1
2107 2379 -1
2107 2380 -1
2108 2108 2.6E1
2108 2109 -1
2108 2123 -1
2108 2124 -1
2108 2125 -1
2108 2347 -1
2108 2348 -1
2108 2349 -1
2108 2363 -1
2108 2364 -1
2108 2365 -1
2108 2379 -1
2108 2380 -1
2108 2381 -1
2109 2109 2.6E1
2109 2110 -1
2109 2124 -1
2109 2125 -1
2109 2126 -1
2109 2348 -1
2109 2349 -1
2109 2350 -1
2109 2364 -1
2109 2365 -1
2109 2366 -1
2109 2380 -1
2109 2381 -1
2109 2382 -1
2110 2110 2.6E1
2110 2111 -1
2110 2125 -1
2110 2126 -1
2110 2127 -1
2110 2349 -1
2110 2350 -1
2110 2351 -1
2110 2365 -1
2110 2366 -1
2110 2367 -1
2110 2381 -1
2110 2382 -1
2110 2383 -1
2111 2111 2.6E1
2111 2112 -1
2111 2126 -1
2111 2127 -1
2111 2128 -1
2111 2350 -1
2111 2351 -1
2111 2352 -1
2111 2366 -1
2111 2367 -1
2111 2368 -1
2111 2382 -1
2111 2383 -1
2111 2384 -1
2112 2112 2.6E1
2112 2127 -1
2112 2128 -1
2112 2351 -1
2112 2352 -1
2112 2367 -1
2112 2368 -1
2112 2383 -1
2112 2384 -1
2113 2113 2.6E1
2113 2114 -1
2113 2129 -1
2113 2130 -1
2113 2353 -1
2113 2354 -1
2113 2369 -1
2113 2370 -1
2113 2385 -1
2113 2386 -1
2114 2114 2.6E1
2114 2115 -1
2114 2129 -1
2114 2130 -1
2114 2131 -1
2114 2353 -1
2114 2354 -1
2114 2355 -1
2114 2369 -1
2114 2370 -1
2114 2371 -1
2114 2385 -1
2114 2386 -1
2114 2387 -1
2115 2115 2.6E1
2115 2116 -1
2115 2130 -1
2115 2131 -1
2115 2132 -1
2115 2354 -1
2115 2355 -1
2115 2356 -1
2115 2370 -1
2115 2371 -1
2115 2372 -1
2115 2386 -1
2115 2387 -1
2115 2388 -1
2116 2116 2.6E1
2116 2117 -1
2116 2131 -1
2116 2132 -1
2116 2133 -1
2116 2355 -1
2116 2356 -1
2116 2357 -1
2116 2371 -1
2116 2372 -1
2116 2373 -1
2116 2387 -1
2116 2388 -1
2116 2389 -1
2117 2117 2.6E1
2117 2118 -1
2117 2132 -1
2117 2133 -1
2117 2134 -1
2117 2356 -1
2117 2357 -1
2117 2358 -1
2117 2372 -1
2117 2373 -1
2117 2374 -1
2117 2388 -1
2117 2389 -1
2117 2390 -1
2118 2118 2.6E1
2118 2119 -1
2118 2133 -1
2118 2134 -1
2118 2135 -1
2118 2357 -1
2118 2358 -1
2118 2359 -1
2118 2373 -1
2118 2374 -1
2118 2375 -1
2118 2389 -1
2118 2390 -1
2118 2391 -1
2119 2119 2.6E1
2119 2120 -1
2119 2134 -1
2119 2135 -1
2119 2136 -1
2119 2358 -1
2119 2359 -1
2119 2360 -1
2119 2374 -1
2119 2375 -1
2119 2376 -1
2119 2390 -1
2119 2391 -1
2119 2392 -1
2120 2120 2.6E1
2120 2121 -1
2120 2135 -1
2120 2136 -1
2120 2137 -1
2120 2359 -1
2120 2360 -1
2120 2361 -1
2120 2375 -1
2120 2376 -1
2120 2377 -1
2120 2391 -1
2120 2392 -1
2120 2393 -1
2121 2121 2.6E1
2121 2122 -1
2121 2136 -1
2121 2137 -1
2121 2138 -1
2121 2360 -1
2121 2361 -1
2121 2362 -1
2121 2376 -1
2121 2377 -1
2121 2378 -1
2121 2392 -1
2121 2393 -1
2121 2394 -1
2122 2122 2.6E1
2122 2123 -1
2122 2137 -1
2122 2138 -1
2122 2139 -1
2122 2361 -1
2122 2362 -1
2122 2363 -1
2122 2377 -1
2122 2378 -1
2122 2379 -1
2122 2393 -1
2122 2394 -1
2122 2395 -1
2123 2123 2.6E1
2123 2124 -1
2123 2138 -1
2123 2139 -1
2123 2140 -1
2123 2362 -1
2123 2363 -1
2123 2364 -1
2123 2378 -1
2123 2379 -1
2123 2380 -1
2123 2394 -1
2123 2395 -1
2123 2396 -1
2124 2124 2.6E1
2124 2125 -1
2124 2139 -1
2124 2140 -1
2124 2141 -1
2124 2363 -1
2124 2364 -1
2124 2365 -1
2124 2379 -1
2124 2380 -1
2124 2381 -1
2124 2395 -1
2124 2396 -1
2124 2397 -1
2125 2125 2.6E1
2125 2126 -1
2125 2140 -1
2125 2141 -1
2125 2142 -1
2125 2364 -1
2125 2365 -1
2125 2366 -1
2125 2380 -1
2125 2381 -1
2125 2382 -1
2125 2396 -1
2125 2397 -1
2125 2398 -1
2126 2126 2.6E1
2126 2127 -1
2126 2141 -1
2126 2142 -1
2126 2143 -1
2126 2365 -1
2126 2366 -1
2126 2367 -1
2126 2381 -1
2126 2382 -1
2126 2383 -1
2126 2397 -1
2126 2398 -1
2126 2399 -1
2127 2127 2.6E1
2127 2128 -1
2127 2142 -1
2127 2143 -1
2127 2144 -1
2127 2366 -1
2127 2367 -1
2127 2368 -1
2127 2382 -1
2127 2383 -1
2127 2384 -1
2127 2398 -1
2127 2399 -1
2127 2400 -1
2128 2128 2.6E1
2128 2143 -1
2128 2144 -1
2128 2367 -1
2128 2368 -1
2128 2383 -1
2128 2384 -1
2128 2399 -1
2128 2400 -1
2129 2129 2.6E1
2129 2130 -1
2129 2145 -1
2129 2146 -1
2129 2369 -1
2129 2370 -1
2129 2385 -1
2129 2386 -1
2129 2401 -1
2129 2402 -1
2130 2130 2.6E1
2130 2131 -1
2130 2145 -1
2130 2146 -1
2130 2147 -1
2130 2369 -1
2130 2370 -1
2130 2371 -1
2130 2385 -1
2130 2386 -1
2130 2387 -1
2130 2401 -1
2130 2402 -1
2130 2403 -1
2131 2131 2.6E1
2131 2132 -1
2131 2146 -1
2131 2147 -1
2131 2148 -1
2131 2370 -1
2131 2371 -1
2131 2372 -1
2131 2386 -1
2131 2387 -1
2131 2388 -1
2131 2402 -1
2131 2403 -1
2131 2404 -1
2132 2132 2.6E1
2132 2133 -1
2132 2147 -1
2132 2148 -1
2132 2149 -1
2132 2371 -1
2132 2372 -1
2132 2373 -1
2132 2387 -1
2132 2388 -1
2132 2389 -1
2132 2403 -1
2132 2404 -1
2132 2405 -1
2133 2133 2.6E1
2133 2134 -1
2133 2148 -1
2133 2149 -1
2133 2150 -1
2133 2372 -1
2133 2373 -1
2133 2374 -1
2133 2388 -1
2133 2389 -1
2133 2390 -1
2133 2404 -1
2133 2405 -1
2133 2406 -1
2134 2134 2.6E1
2134 2135 -1
2134 2149 -1
2134 2150 -1
2134 2151 -1
2134 2373 -1
2134 2374 -1
2134 2375 -1
2134 2389 -1
2134 2390 -1
2134 2391 -1
2134 2405 -1
2134 2406 -1
2134 2407 -1
2135 2135 2.6E1
2135 2136 -1
2135 2150 -1
2135 2151 -1
2135 2152 -1
2135 2374 -1
2135 2375 -1
2135 2376 -1
2135 2390 -1
2135 2391 -1
2135 2392 -1
2135 2406 -1
2135 2407 -1
2135 2408 -1
2136 2136 2.6E1
2136 2137 -1
2136 2151 -1
2136 2152 -1
2136 2153 -1
2136 2375 -1
2136 2376 -1
2136 2377 -1
2136 2391 -1
2136 2392 -1
2136 2393 -1
2136 2407 -1
2136 2408 -1
2136 2409 -1
2137 2137 2.6E1
2137 2138 -1
2137 2152 -1
2137 2153 -1
2137 2154 -1
2137 2376 -1
2137 2377 -1
2137 2378 -1
2137 2392 -1
2137 2393 -1
2137 2394 -1
2137 2408 -1
2137 2409 -1
2137 2410 -1
2138 2138 2.6E1
2138 2139 -1
2138 2153 -1
2138 2154 -1
2138 2155 -1
2138 2377 -1
2138 2378 -1
2138 2379 -1
2138 2393 -1
2138 2394 -1
2138 2395 -1
2138 2409 -1
2138 2410 -1
2138 2411 -1
2139 2139 2.6E1
2139 2140 -1
2139 2154 -1
2139 2155 -1
2139 2156 -1
2139 2378 -1
2139 2379 -1
2139 2380 -1
2139 2394 -1
2139 2395 -1
2139 2396 -1
2139 2410 -1
2139 2411 -1
2139 2412 -1
2140 2140 2.6E1
2140 2141 -1
2140 2155 -1
2140 2156 -1
2140 2157 -1
2140 2379 -1
2140 2380 -1
2140 2381 -1
2140 2395 -1
2140 2396 -1
2140 2397 -1
2140 2411 -1
2140 2412 -1
2140 2413 -1
2141 2141 2.6E1
2141 2142 -1
2141 2156 -1
2141 2157 -1
2141 2158 -1
2141 2380 -1
2141 2381 -1
2141 2382 -1
2141 2396 -1
2141 2397 -1
2141 2398 -1
2141 2412 -1
2141 2413 -1
2141 2414 -1
2142 2142 2.6E1
2142 2143 -1
2142 2157 -1
2142 2158 -1
2142 2159 -1
2142 2381 -1
2142 2382 -1
2142 2383 -1
2142 2397 -1
2142 2398 -1
2142 2399 -1
2142 2413 -1
2142 2414 -1
2142 2415 -1
2143 2143 2.6E1
2143 2144 -1
2143 2158 -1
2143 2159 -1
2143 2160 -1
2143 2382 -1
2143 2383 -1
2143 2384 -1
2143 2398 -1
2143 2399 -1
2143 2400 -1
2143 2414 -1
2143 2415 -1
2143 2416 -1
2144 2144 2.6E1
2144 2159 -1
2144 2160 -1
2144 2383 -1
2144 2384 -1
2144 2399 -1
2144 2400 -1
2144 2415 -1
2144 2416 -1
2145 2145 2.6E1
2145 2146 -1
2145 2161 -1
2145 2162 -1
2145 2385 -1
2145 2386 -1
2145 2401 -1
2145 2402 -1
2145 2417 -1
2145 2418 -1
2146 2146 2.6E1
2146 2147 -1
2146 2161 -1
2146 2162 -1
2146 2163 -1
2146 2385 -1
2146 2386 -1
2146 2387 -1
2146 2401 -1
2146 2402 -1
2146 2403 -1
2146 2417 -1
2146 2418 -1
2146 2419 -1
2147 2147 2.6E1
2147 2148 -1
2147 2162 -1
2147 2163 -1
2147 2164 -1
2147 2386 -1
2147 2387 -1
2147 2388 -1
2147 2402 -1
2147 2403 -1
2147 2404 -1
2147 2418 -1
2147 2419 -1
2147 2420 -1
2148 2148 2.6E1
2148 2149 -1
2148 2163 -1
2148 2164 -1
2148 2165 -1
2148 2387 -1
2148 2388 -1
2148 2389 -1
2148 2403 -1
2148 2404 -1
2148 2405 -1
2148 2419 -1
2148 2420 -1
2148 2421 -1
2149 2149 2.6E1
2149 2150 -1
2149 2164 -1
2149 2165 -1
2149 2166 -1
2149 2388 -1
2149 2389 -1
2149 2390 -1
2149 2404 -1
2149 2405 -1
2149 2406 -1
2149 2420 -1
2149 2421 -1
2149 2422 -1
2150 2150 2.6E1
2150 2151 -1
2150 2165 -1
2150 2166 -1
2150 2167 -1
2150 2389 -1
2150 2390 -1
2150 2391 -1
2150 2405 -1
2150 2406 -1
2150 2407 -1
2150 2421 -1
2150 2422 -1
2150 2423 -1
2151 2151 2.6E1
2151 2152 -1
2151 2166 -1
2151 2167 -1
2151 2168 -1
2151 2390 -1
2151 2391 -1
2151 2392 -1
2151 2406 -1
2151 2407 -1
2151 2408 -1
2151 2422 -1
2151 2423 -1
2151 2424 -1
2152 2152 2.6E1
2152 2153 -1
2152 2167 -1
2152 2168 -1
2152 2169 -1
2152 2391 -1
2152 2392 -1
2152 2393 -1
2152 2407 -1
2152 2408 -1
2152 2409 -1
2152 2423 -1
2152 2424 -1
2152 2425 -1
2153 2153 2.6E1
2153 2154 -1
2153 2168 -1
2153 2169 -1
2153 2170 -1
2153 2392 -1
2153 2393 -1
2153 2394 -1
2153 2408 -1
2153 2409 -1
2153 2410 -1
2153 2424 -1
2153 2425 -1
2153 2426 -1
2154 2154 2.6E1
2154 2155 -1
2154 2169 -1
2154 2170 -1
2154 2171 -1
2154 2393 -1
2154 2394 -1
2154 2395 -1
2154 2409 -1
2154 2410 -1
2154 2411 -1
2154 2425 -1
2154 2426 -1
2154 2427 -1
2155 2155 2.6E1
2155 2156 -1
2155 2170 -1
2155 2171 -1
2155 2172 -1
2155 2394 -1
2155 2395 -1
2155 2396 -1
2155 2410 -1
2155 2411 -1
2155 2412 -1
2155 2426 -1
2155 2427 -1
2155 2428 -1
2156 2156 2.6E1
2156 2157 -1
2156 2171 -1
2156 2172 -1
2156 2173 -1
2156 2395 -1
2156 2396 -1
2156 2397 -1
2156 2411 -1
2156 2412 -1
2156 2413 -1
2156 2427 -1
2156 2428 -1
2156 2429 -1
2157 2157 2.6E1
2157 2158 -1
2157 2172 -1
2157 2173 -1
2157 2174 -1
2157 2396 -1
2157 2397 -1
2157 2398 -1
2157 2412 -1
2157 2413 -1
2157 2414 -1
2157 2428 -1
2157 2429 -1
2157 2430 -1
2158 2158 2.6E1
2158 2159 -1
2158 2173 -1
2158 2174 -1
2158 2175 -1
2158 2397 -1
2158 2398 -1
2158 2399 -1
2158 2413 -1
2158 2414 -1
2158 2415 -1
2158 2429 -1
2158 2430 -1
2158 2431 -1
2159 2159 2.6E1
2159 2160 -1
2159 2174 -1
2159 2175 -1
2159 2176 -1
2159 2398 -1
2159 2399 -1
2159 2400 -1
2159 2414 -1
2159 2415 -1
2159 2416 -1
2159 2430 -1
2159 2431 -1
2159 2432 -1
2160 2160 2.6E1
2160 2175 -1
2160 2176 -1
2160 2399 -1
2160 2400 -1
2160 2415 -1
2160 2416 -1
2160 2431 -1
2160 2432 -1
2161 2161 2.6E1
2161 2162 -1
2161 2177 -1
2161 2178 -1
2161 2401 -1
2161 2402 -1
2161 2417 -1
2161 2418 -1
2161 2433 -1
2161 2434 -1
2162 2162 2.6E1
2162 2163 -1
2162 2177 -1
2162 2178 -1
2162 2179 -1
2162 2401 -1
2162 2402 -1
2162 2403 -1
2162 2417 -1
2162 2418 -1
2162 2419 -1
2162 2433 -1
2162 2434 -1
2162 2435 -1
2163 2163 2.6E1
2163 2164 -1
2163 2178 -1
2163 2179 -1
2163 2180 -1
2163 2402 -1
2163 2403 -1
2163 2404 -1
2163 2418 -1
2163 2419 -1
2163 2420 -1
2163 2434 -1
2163 2435 -1
2163 2436 -1
2164 2164 2.6E1
2164 2165 -1
2164 2179 -1
2164 2180 -1
2164 2181 -1
2164 2403 -1
2164 2404 -1
2164 2405 -1
2164 2419 -1
2164 2420 -1
2164 2421 -1
2164 2435 -1
2164 2436 -1
2164 2437 -1
2165 2165 2.6E1
2165 2166 -1
2165 2180 -1
2165 2181 -1
2165 2182 -1
2165 2404 -1
2165 2405 -1
2165 2406 -1
2165 2420 -1
2165 2421 -1
2165 2422 -1
2165 2436 -1
2165 2437 -1
2165 2438 -1
2166 2166 2.6E1
2166 2167 -1
2166 2181 -1
2166 2182 -1
2166 2183 -1
2166 2405 -1
2166 2406 -1
2166 2407 -1
2166 2421 -1
2166 2422 -1
2166 2423 -1
2166 2437 -1
2166 2438 -1
2166 2439 -1
2167 2167 2.6E1
2167 2168 -1
2167 2182 -1
2167 2183 -1
2167 2184 -1
2167 2406 -1
2167 2407 -1
2167 2408 -1
2167 2422 -1
2167 2423 -1
2167 2424 -1
2167 2438 -1
2167 2439 -1
2167 2440 -1
2168 2168 2.6E1
2168 2169 -1
2168 2183 -1
2168 2184 -1
2168 2185 -1
2168 2407 -1
2168 2408 -1
2168 2409 -1
2168 2423 -1
2168 2424 -1
2168 2425 -1
2168 2439 -1
2168 2440 -1
2168 2441 -1
2169 2169 2.6E1
2169 2170 -1
2169 2184 -1
2169 2185 -1
2169 2186 -1
2169 2408 -1
2169 2409 -1
2169 2410 -1
2169 2424 -1
2169 2425 -1
2169 2426 -1
2169 2440 -1
2169 2441 -1
2169 2442 -1
2170 2170 2.6E1
2170 2171 -1
2170 2185 -1
2170 2186 -1
2170 2187 -1
2170 2409 -1
2170 2410 -1
2170 2411 -1
2170 2425 -1
2170 2426 -1
2170 2427 -1
2170 2441 -1
2170 2442 -1
2170 2443 -1
2171 2171 2.6E1
2171 2172 -1
2171 2186 -1
2171 2187 -1
2171 2188 -1
2171 2410 -1
2171 2411 -1
2171 2412 -1
2171 2426 -1
2171 2427 -1
2171 2428 -1
2171 2442 -1
2171 2443 -1
2171 2444 -1
2172 2172 2.6E1
2172 2173 -1
2172 2187 -1
2172 2188 -1
2172 2189 -1
2172 2411 -1
2172 2412 -1
2172 2413 -1
2172 2427 -1
2172 2428 -1
2172 2429 -1
2172 2443 -1
2172 2444 -1
2172 2445 -1
2173 2173 2.6E1
2173 2174 -1
2173 2188 -1
2173 2189 -1
2173 2190 -1
2173 2412 -1
2173 2413 -1
2173 2414 -1
2173 2428 -1
2173 2429 -1
2173 2430 -1
2173 2444 -1
2173 2445 -1
2173 2446 -1
2174 2174 2.6E1
2174 2175 -1
2174 2189 -1
2174 2190 -1
2174 2191 -1
2174 2413 -1
2174 2414 -1
2174 2415 -1
2174 2429 -1
2174 2430 -1
2174 2431 -1
2174 2445 -1
2174 2446 -1
2174 2447 -1
2175 2175 2.6E1
2175 2176 -1
2175 2190 -1
2175 2191 -1
2175 2192 -1
2175 2414 -1
2175 2415 -1
2175 2416 -1
2175 2430 -1
2175 2431 -1
2175 2432 -1
2175 2446 -1
2175 2447 -1
2175 2448 -1
2176 2176 2.6E1
2176 2191 -1
2176 2192 -1
2176 2415 -1
2176 2416 -1
2176 2431 -1
2176 2432 -1
2176 2447 -1
2176 2448 -1
2177 2177 2.6E1
2177 2178 -1
2177 2193 -1
2177 2194 -1
2177 2417 -1
2177 2418 -1
2177 2433 -1
2177 2434 -1
2177 2449 -1
2177 2450 -1
2178 2178 2.6E1
2178 2179 -1
2178 2193 -1
2178 2194 -1
2178 2195 -1
2178 2417 -1
2178 2418 -1
2178 2419 -1
2178 2433 -1
2178 2434 -1
2178 2435 -1
2178 2449 -1
2178 2450 -1
2178 2451 -1
2179 2179 2.6E1
2179 2180 -1
2179 2194 -1
2179 2195 -1
2179 2196 -1
2179 2418 -1
2179 2419 -1
2179 2420 -1
2179 2434 -1
2179 2435 -1
2179 2436 -1
2179 2450 -1
2179 2451 -1
2179 2452 -1
2180 2180 2.6E1
2180 2181 -1
2180 2195 -1
2180 2196 -1
2180 2197 -1
2180 2419 -1
2180 2420 -1
2180 2421 -1
2180 2435 -1
2180 2436 -1
2180 2437 -1
2180 2451 -1
2180 2452 -1
2180 2453 -1
2181 2181 2.6E1
2181 2182 -1
2181 2196 -1
2181 2197 -1
2181 2198 -1
2181 2420 -1
2181 2421 -1
2181 2422 -1
2181 2436 -1
2181 2437 -1
2181 2438 -1
2181 2452 -1
2181 2453 -1
2181 2454 -1
2182 2182 2.6E1
2182 2183 -1
2182 2197 -1
2182 2198 -1
2182 2199 -1
2182 2421 -1
2182 2422 -1
2182 2423 -1
2182 2437 -1
2182 2438 -1
2182 2439 -1
2182 2453 -1
2182 2454 -1
2182 2455 -1
2183 2183 2.6E1
2183 2184 -1
2183 2198 -1
2183 2199 -1
2183 2200 -1
2183 2422 -1
2183 2423 -1
2183 2424 -1
2183 2438 -1
2183 2439 -1
2183 2440 -1
2183 2454 -1
2183 2455 -1
2183 2456 -1
2184 2184 2.6E1
2184 2185 -1
2184 2199 -1
2184 2200 -1
2184 2201 -1
2184 2423 -1
2184 2424 -1
2184 2425 -1
2184 2439 -1
2184 2440 -1
2184 2441 -1
2184 2455 -1
2184 2456 -1
2184 2457 -1
2185 2185 2.6E1
2185 2186 -1
2185 2200 -1
2185 2201 -1
2185 2202 -1
2185 2424 -1
2185 2425 -1
2185 2426 -1
2185 2440 -1
2185 2441 -1
2185 2442 -1
2185 2456 -1
2185 2457 -1
2185 2458 -1
2186 2186 2.6E1
2186 2187 -1
2186 2201 -1
2186 2202 -1
2186 2203 -1
2186 2425 -1
2186 2426 -1
2186 2427 -1
2186 2441 -1
2186 2442 -1
2186 2443 -1
2186 2457 -1
2186 2458 -1
2186 2459 -1
2187 2187 2.6E1
2187 2188 -1
2187 2202 -1
2187 2203 -1
2187 2204 -1
2187 2426 -1
2187 2427 -1
2187 2428 -1
2187 2442 -1
2187 2443 -1
2187 2444 -1
2187 2458 -1
2187 2459 -1
2187 2460 -1
2188 2188 2.6E1
2188 2189 -1
2188 2203 -1
2188 2204 -1
2188 2205 -1
2188 2427 -1
2188 2428 -1
2188 2429 -1
2188 2443 -1
2188 2444 -1
2188 2445 -1
2188 2459 -1
2188 2460 -1
2188 2461 -1
2189 2189 2.6E1
2189 2190 -1
2189 2204 -1
2189 2205 -1
2189 2206 -1
2189 2428 -1
2189 2429 -1
2189 2430 -1
2189 2444 -1
2189 2445 -1
2189 2446 -1
2189 2460 -1
2189 2461 -1
2189 2462 -1
2190 2190 2.6E1
2190 2191 -1
2190 2205 -1
2190 2206 -1
2190 2207 -1
2190 2429 -1
2190 2430 -1
2190 2431 -1
2190 2445 -1
2190 2446 -1
2190 2447 -1
2190 2461 -1
2190 2462 -1
2190 2463 -1
2191 2191 2.6E1
2191 2192 -1
2191 2206 -1
2191 2207 -1
2191 2208 -1
2191 2430 -1
2191 2431 -1
2191 2432 -1
2191 2446 -1
2191 2447 -1
2191 2448 -1
2191 2462 -1
2191 2463 -1
2191 2464 -1
2192 2192 2.6E1
2192 2207 -1
2192 2208 -1
2192 2431 -1
2192 2432 -1
2192 2447 -1
2192 2448 -1
2192 2463 -1
2192 2464 -1
2193 2193 2.6E1
2193 2194 -1
2193 2209 -1
2193 2210 -1
2193 2433 -1
2193 2434 -1
2193 2449 -1
2193 2450 -1
2193 2465 -1
2193 2466 -1
2194 2194 2.6E1
2194 2195 -1
2194 2209 -1
2194 2210 -1
2194 2211 -1
2194 2433 -1
2194 2434 -1
2194 2435 -1
2194 2449 -1
2194 2450 -1
2194 2451 -1
2194 2465 -1
2194 2466 -1
2194 2467 -1
2195 2195 2.6E1
2195 2196 -1
2195 2210 -1
2195 2211 -1
2195 2212 -1
2195 2434 -1
2195 2435 -1
2195 2436 -1
2195 2450 -1
2195 2451 -1
2195 2452 -1
2195 2466 -1
2195 2467 -1
2195 2468 -1
2196 2196 2.6E1
2196 2197 -1
2196 2211 -1
2196 2212 -1
2196 2213 -1
2196 2435 -1
2196 2436 -1
2196 2437 -1
2196 2451 -1
2196 2452 -1
2196 2453 -1
2196 2467 -1
2196 2468 -1
2196 2469 -1
2197 2197 2.6E1
2197 2198 -1
2197 2212 -1
2197 2213 -1
2197 2214 -1
2197 2436 -1
2197 2437 -1
2197 2438 -1
2197 2452 -1
2197 2453 -1
2197 2454 -1
2197 2468 -1
2197 2469 -1
2197 2470 -1
2198 2198 2.6E1
2198 2199 -1
2198 2213 -1
2198 2214 -1
2198 2215 -1
2198 2437 -1
2198 2438 -1
2198 2439 -1
2198 2453 -1
2198 2454 -1
2198 2455 -1
2198 2469 -1
2198 2470 -1
2198 2471 -1
2199 2199 2.6E1
2199 2200 -1
2199 2214 -1
2199 2215 -1
2199 2216 -1
2199 2438 -1
2199 2439 -1
2199 2440 -1
2199 2454 -1
2199 2455 -1
2199 2456 -1
2199 2470 -1
2199 2471 -1
2199 2472 -1
2200 2200 2.6E1
2200 2201 -1
2200 2215 -1
2200 2216 -1
2200 2217 -1
2200 2439 -1
2200 2440 -1
2200 2441 -1
2200 2455 -1
2200 2456 -1
2200 2457 -1
2200 2471 -1
2200 2472 -1
2200 2473 -1
2201 2201 2.6E1
2201 2202 -1
2201 2216 -1
2201 2217 -1
2201 2218 -1
2201 2440 -1
2201 2441 -1
2201 2442 -1
2201 2456 -1
2201 2457 -1
2201 2458 -1
2201 2472 -1
2201 2473 -1
2201 2474 -1
2202 2202 2.6E1
2202 2203 -1
2202 2217 -1
2202 2218 -1
2202 2219 -1
2202 2441 -1
2202 2442 -1
2202 2443 -1
2202 2457 -1
2202 2458 -1
2202 2459 -1
2202 2473 -1
2202 2474 -1
2202 2475 -1
2203 2203 2.6E1
2203 2204 -1
2203 2218 -1
2203 2219 -1
2203 2220 -1
2203 2442 -1
2203 2443 -1
2203 2444 -1
2203 2458 -1
2203 2459 -1
2203 2460 -1
2203 2474 -1
2203 2475 -1
2203 2476 -1
2204 2204 2.6E1
2204 2205 -1
2204 2219 -1
2204 2220 -1
2204 2221 -1
2204 2443 -1
2204 2444 -1
2204 2445 -1
2204 2459 -1
2204 2460 -1
2204 2461 -1
2204 2475 -1
2204 2476 -1
2204 2477 -1
2205 2205 2.6E1
2205 2206 -1
2205 2220 -1
2205 2221 -1
2205 2222 -1
2205 2444 -1
2205 2445 -1
2205 2446 -1
2205 2460 -1
2205 2461 -1
2205 2462 -1
2205 2476 -1
2205 2477 -1
2205 2478 -1
2206 2206 2.6E1
2206 2207 -1
2206 2221 -1
2206 2222 -1
2206 2223 -1
2206 2445 -1
2206 2446 -1
2206 2447 -1
2206 2461 -1
2206 2462 -1
2206 2463 -1
2206 2477 -1
2206 2478 -1
2206 2479 -1
2207 2207 2.6E1
2207 2208 -1
2207 2222 -1
2207 2223 -1
2207 2224 -1
2207 2446 -1
2207 2447 -1
2207 2448 -1
2207 2462 -1
2207 2463 -1
2207 2464 -1
2207 2478 -1
2207 2479 -1
2207 2480 -1
2208 2208 2.6E1
2208 2223 -1
2208 2224 -1
2208 2447 -1
2208 2448 -1
2208 2463 -1
2208 2464 -1
2208 2479 -1
2208 2480 -1
2209 2209 2.6E1
2209 2210 -1
2209 2225 -1
2209 2226 -1
2209 2449 -1
2209 2450 -1
2209 2465 -1
2209 2466 -1
2209 2481 -1
2209 2482 -1
2210 2210 2.6E1
2210 2211 -1
2210 2225 -1
2210 2226 -1
2210 2227 -1
2210 2449 -1
2210 2450 -1
2210 2451 -1
2210 2465 -1
2210 2466 -1
2210 2467 -1
2210 2481 -1
2210 2482 -1
2210 2483 -1
2211 2211 2.6E1
2211 2212 -1
2211 2226 -1
2211 2227 -1
2211 2228 -1
2211 2450 -1
2211 2451 -1
2211 2452 -1
2211 2466 -1
2211 2467 -1
2211 2468 -1
2211 2482 -1
2211 2483 -1
2211 2484 -1
2212 2212 2.6E1
2212 2213 -1
2212 2227 -1
2212 2228 -1
2212 2229 -1
2212 2451 -1
2212 2452 -1
2212 2453 -1
2212 2467 -1
2212 2468 -1
2212 2469 -1
2212 2483 -1
2212 2484 -1
2212 2485 -1
2213 2213 2.6E1
2213 2214 -1
2213 2228 -1
2213 2229 -1
2213 2230 -1
2213 2452 -1
2213 2453 -1
2213 2454 -1
2213 2468 -1
2213 2469 -1
2213 2470 -1
2213 2484 -1
2213 2485 -1
2213 2486 -1
2214 2214 2.6E1
2214 2215 -1
2214 2229 -1
2214 2230 -1
2214 2231 -1
2214 2453 -1
2214 2454 -1
2214 2455 -1
2214 2469 -1
2214 2470 -1
2214 2471 -1
2214 2485 -1
2214 2486 -1
2214 2487 -1
2215 2215 2.6E1
2215 2216 -1
2215 2230 -1
2215 2231 -1
2215 2232 -1
2215 2454 -1
2215 2455 -1
2215 2456 -1
2215 2470 -1
2215 2471 -1
2215 2472 -1
2215 2486 -1
2215 2487 -1
2215 2488 -1
2216 2216 2.6E1
2216 2217 -1
2216 2231 -1
2216 2232 -1
2216 2233 -1
2216 2455 -1
2216 2456 -1
2216 2457 -1
2216 2471 -1
2216 2472 -1
2216 2473 -1
2216 2487 -1
2216 2488 -1
2216 2489 -1
2217 2217 2.6E1
2217 2218 -1
2217 2232 -1
2217 2233 -1
2217 2234 -1
2217 2456 -1
2217 2457 -1
2217 2458 -1
2217 2472 -1
2217 2473 -1
2217 2474 -1
2217 2488 -1
2217 2489 -1
2217 2490 -1
2218 2218 2.6E1
2218 2219 -1
2218 2233 -1
2218 2234 -1
2218 2235 -1
2218 2457 -1
2218 2458 -1
2218 2459 -1
2218 2473 -1
2218 2474 -1
2218 2475 -1
2218 2489 -1
2218 2490 -1
2218 2491 -1
2219 2219 2.6E1
2219 2220 -1
2219 2234 -1
2219 2235 -1
2219 2236 -1
2219 2458 -1
2219 2459 -1
2219 2460 -1
2219 2474 -1
2219 2475 -1
2219 2476 -1
2219 2490 -1
2219 2491 -1
2219 2492 -1
2220 2220 2.6E1
2220 2221 -1
2220 2235 -1
2220 2236 -1
2220 2237 -1
2220 2459 -1
2220 2460 -1
2220 2461 -1
2220 2475 -1
2220 2476 -1
2220 2477 -1
2220 2491 -1
2220 2492 -1
2220 2493 -1
2221 2221 2.6E1
2221 2222 -1
2221 2236 -1
2221 2237 -1
2221 2238 -1
2221 2460 -1
2221 2461 -1
2221 2462 -1
2221 2476 -1
2221 2477 -1
2221 2478 -1
2221 2492 -1
2221 2493 -1
2221 2494 -1
2222 2222 2.6E1
2222 2223 -1
2222 2237 -1
2222 2238 -1
2222 2239 -1
2222 2461 -1
2222 2462 -1
2222 2463 -1
2222 2477 -1
2222 2478 -1
2222 2479 -1
2222 2493 -1
2222 2494 -1
2222 2495 -1
2223 2223 2.6E1
2223 2224 -1
2223 2238 -1
2223 2239 -1
2223 2240 -1
2223 2462 -1
2223 2463 -1
2223 2464 -1
2223 2478 -1
2223 2479 -1
2223 2480 -1
2223 2494 -1
2223 2495 -1
2223 2496 -1
2224 2224 2.6E1
2224 2239 -1
2224 2240 -1
2224 2463 -1
2224 2464 -1
2224 2479 -1
2224 2480 -1
2224 2495 -1
2224 2496 -1
2225 2225 2.6E1
2225 2226 -1
2225 2241 -1
2225 2242 -1
2225 2465 -1
2225 2466 -1
2225 2481 -1
2225 2482 -1
2225 2497 -1
2225 2498 -1
2226 2226 2.6E1
2226 2227 -1
2226 2241 -1
2226 2242 -1
2226 2243 -1
2226 2465 -1
2226 2466 -1
2226 2467 -1
2226 2481 -1
2226 2482 -1
2226 2483 -1
2226 2497 -1
2226 2498 -1
2226 2499 -1
2227 2227 2.6E1
2227 2228 -1
2227 2242 -1
2227 2243 -1
2227 2244 -1
2227 2466 -1
2227 2467 -1
2227 2468 -1
2227 2482 -1
2227 2483 -1
2227 2484 -1
2227 2498 -1
2227 2499 -1
2227 2500 -1
2228 2228 2.6E1
2228 2229 -1
2228 2243 -1
2228 2244 -1
2228 2245 -1
2228 2467 -1
2228 2468 -1
2228 2469 -1
2228 2483 -1
2228 2484 -1
2228 2485 -1
2228 2499 -1
2228 2500 -1
2228 2501 -1
2229 2229 2.6E1
2229 2230 -1
2229 2244 -1
2229 2245 -1
2229 2246 -1
2229 2468 -1
2229 2469 -1
2229 2470 -1
2229 2484 -1
2229 2485 -1
2229 2486 -1
2229 2500 -1
2229 2501 -1
2229 2502 -1
2230 2230 2.6E1
2230 2231 -1
2230 2245 -1
2230 2246 -1
2230 2247 -1
2230 2469 -1
2230 2470 -1
2230 2471 -1
2230 2485 -1
2230 2486 -1
2230 2487 -1
2230 2501 -1
2230 2502 -1
2230 2503 -1
2231 2231 2.6E1
2231 2232 -1
2231 2246 -1
2231 2247 -1
2231 2248 -1
2231 2470 -1
2231 2471 -1
2231 2472 -1
2231 2486 -1
2231 2487 -1
2231 2488 -1
2231 2502 -1
2231 2503 -1
2231 2504 -1
2232 2232 2.6E1
2232 2233 -1
2232 2247 -1
2232 2248 -1
2232 2249 -1
2232 2471 -1
2232 2472 -1
2232 2473 -1
2232 2487 -1
2232 2488 -1
2232 2489 -1
2232 2503 -1
2232 2504 -1
2232 2505 -1
2233 2233 2.6E1
2233 2234 -1
2233 2248 -1
2233 2249 -1
2233 2250 -1
2233 2472 -1
2233 2473 -1
2233 2474 -1
2233 2488 -1
2233 2489 -1
2233 2490 -1
2233 2504 -1
2233 2505 -1
2233 2506 -1
2234 2234 2.6E1
2234 2235 -1
2234 2249 -1
2234 2250 -1
2234 2251 -1
2234 2473 -1
2234 2474 -1
2234 2475 -1
2234 2489 -1
2234 2490 -1
2234 2491 -1
2234 2505 -1
2234 2506 -1
2234 2507 -1
2235 2235 2.6E1
2235 2236 -1
2235 2250 -1
2235 2251 -1
2235 2252 -1
2235 2474 -1
2235 2475 -1
2235 2476 -1
2235 2490 -1
2235 2491 -1
2235 2492 -1
2235 2506 -1
2235 2507 -1
2235 2508 -1
2236 2236 2.6E1
2236 2237 -1
2236 2251 -1
2236 2252 -1
2236 2253 -1
2236 2475 -1
2236 2476 -1
2236 2477 -1
2236 2491 -1
2236 2492 -1
2236 2493 -1
2236 2507 -1
2236 2508 -1
2236 2509 -1
2237 2237 2.6E1
2237 2238 -1
2237 2252 -1
2237 2253 -1
2237 2254 -1
2237 2476 -1
2237 2477 -1
2237 2478 -1
2237 2492 -1
2237 2493 -1
2237 2494 -1
2237 2508 -1
2237 2509 -1
2237 2510 -1
2238 2238 2.6E1
2238 2239 -1
2238 2253 -1
2238 2254 -1
2238 2255 -1
2238 2477 -1
2238 2478 -1
2238 2479 -1
2238 2493 -1
2238 2494 -1
2238 2495 -1
2238 2509 -1
2238 2510 -1
2238 2511 -1
2239 2239 2.6E1
2239 2240 -1
2239 2254 -1
2239 2255 -1
2239 2256 -1
2239 2478 -1
2239 2479 -1
2239 2480 -1
2239 2494 -1
2239 2495 -1
2239 2496 -1
2239 2510 -1
2239 2511 -1
2239 2512 -1
2240 2240 2.6E1
2240 2255 -1
2240 2256 -1
2240 2479 -1
2240 2480 -1
2240 2495 -1
2240 2496 -1
2240 2511 -1
2240 2512 -1
2241 2241 2.6E1
2241 2242 -1
2241 2257 -1
2241 2258 -1
2241 2481 -1
2241 2482 -1
2241 2497 -1
2241 2498 -1
2241 2513 -1
2241 2514 -1
2242 2242 2.6E1
2242 2243 -1
2242 2257 -1
2242 2258 -1
2242 2259 -1
2242 2481 -1
2242 2482 -1
2242 2483 -1
2242 2497 -1
2242 2498 -1
2242 2499 -1
2242 2513 -1
2242 2514 -1
2242 2515 -1
2243 2243 2.6E1
2243 2244 -1
2243 2258 -1
2243 2259 -1
2243 2260 -1
2243 2482 -1
2243 2483 -1
2243 2484 -1
2243 2498 -1
2243 2499 -1
2243 2500 -1
2243 2514 -1
2243 2515 -1
2243 2516 -1
2244 2244 2.6E1
2244 2245 -1
2244 2259 -1
2244 2260 -1
2244 2261 -1
2244 2483 -1
2244 2484 -1
2244 2485 -1
2244 2499 -1
2244 2500 -1
2244 2501 -1
2244 2515 -1
2244 2516 -1
2244 2517 -1
2245 2245 2.6E1
2245 2246 -1
2245 2260 -1
2245 2261 -1
2245 2262 -1
2245 2484 -1
2245 2485 -1
2245 2486 -1
2245 2500 -1
2245 2501 -1
2245 2502 -1
2245 2516 -1
2245 2517 -1
2245 2518 -1
2246 2246 2.6E1
2246 2247 -1
2246 2261 -1
2246 2262 -1
2246 2263 -1
2246 2485 -1
2246 2486 -1
2246 2487 -1
2246 2501 -1
2246 2502 -1
2246 2503 -1
2246 2517 -1
2246 2518 -1
2246 2519 -1
2247 2247 2.6E1
2247 2248 -1
2247 2262 -1
2247 2263 -1
2247 2264 -1
2247 2486 -1
2247 2487 -1
2247 2488 -1
2247 2502 -1
2247 2503 -1
2247 2504 -1
2247 2518 -1
2247 2519 -1
2247 2520 -1
2248 2248 2.6E1
2248 2249 -1
2248 2263 -1
2248 2264 -1
2248 2265 -1
2248 2487 -1
2248 2488 -1
2248 2489 -1
2248 2503 -1
2248 2504 -1
2248 2505 -1
2248 2519 -1
2248 2520 -1
2248 2521 -1
2249 2249 2.6E1
2249 2250 -1
2249 2264 -1
2249 2265 -1
2249 2266 -1
2249 2488 -1
2249 2489 -1
2249 2490 -1
2249 2504 -1
2249 2505 -1
2249 2506 -1
2249 2520 -1
2249 2521 -1
2249 2522 -1
2250 2250 2.6E1
2250 2251 -1
2250 2265 -1
2250 2266 -1
2250 2267 -1
2250 2489 -1
2250 2490 -1
2250 2491 -1
2250 2505 -1
2250 2506 -1
2250 2507 -1
2250 2521 -1
2250 2522 -1
2250 2523 -1
2251 2251 2.6E1
2251 2252 -1
2251 2266 -1
2251 2267 -1
2251 2268 -1
2251 2490 -1
2251 2491 -1
2251 2492 -1
2251 2506 -1
2251 2507 -1
2251 2508 -1
2251 2522 -1
2251 2523 -1
2251 2524 -1
2252 2252 2.6E1
2252 2253 -1
2252 2267 -1
2252 2268 -1
2252 2269 -1
2252 2491 -1
2252 2492 -1
2252 2493 -1
2252 2507 -1
2252 2508 -1
2252 2509 -1
2252 2523 -1
2252 2524 -1
2252 2525 -1
2253 2253 2.6E1
2253 2254 -1
2253 2268 -1
2253 2269 -1
2253 2270 -1
2253 2492 -1
2253 2493 -1
2253 2494 -1
2253 2508 -1
2253 2509 -1
2253 2510 -1
2253 2524 -1
2253 2525 -1
2253 2526 -1
2254 2254 2.6E1
2254 2255 -1
2254 2269 -1
2254 2270 -1
2254 2271 -1
2254 2493 -1
2254 2494 -1
2254 2495 -1
2254 2509 -1
2254 2510 -1
2254 2511 -1
2254 2525 -1
2254 2526 -1
2254 2527 -1
2255 2255 2.6E1
2255 2256 -1
2255 2270 -1
2255 2271 -1
2255 2272 -1
2255 2494 -1
2255 2495 -1
2255 2496 -1
2255 2510 -1
2255 2511 -1
2255 2512 -1
2255 2526 -1
2255 2527 -1
2255 2528 -1
2256 2256 2.6E1
2256 2271 -1
2256 2272 -1
2256 2495 -1
2256 2496 -1
2256 2511 -1
2256 2512 -1
2256 2527 -1
2256 2528 -1
2257 2257 2.6E1
2257 2258 -1
2257 2273 -1
2257 2274 -1
2257 2497 -1
2257 2498 -1
2257 2513 -1
2257 2514 -1
2257 2529 -1
2257 2530 -1
2258 2258 2.6E1
2258 2259 -1
2258 2273 -1
2258 2274 -1
2258 2275 -1
2258 2497 -1
2258 2498 -1
2258 2499 -1
2258 2513 -1
2258 2514 -1
2258 2515 -1
2258 2529 -1
2258 2530 -1
2258 2531 -1
2259 2259 2.6E1
2259 2260 -1
2259 2274 -1
2259 2275 -1
2259 2276 -1
2259 2498 -1
2259 2499 -1
2259 2500 -1
2259 2514 -1
2259 2515 -1
2259 2516 -1
2259 2530 -1
2259 2531 -1
2259 2532 -1
2260 2260 2.6E1
2260 2261 -1
2260 2275 -1
2260 2276 -1
2260 2277 -1
2260 2499 -1
2260 2500 -1
2260 2501 -1
2260 2515 -1
2260 2516 -1
2260 2517 -1
2260 2531 -1
2260 2532 -1
2260 2533 -1
2261 2261 2.6E1
2261 2262 -1
2261 2276 -1
2261 2277 -1
2261 2278 -1
2261 2500 -1
2261 2501 -1
2261 2502 -1
2261 2516 -1
2261 2517 -1
2261 2518 -1
2261 2532 -1
2261 2533 -1
2261 2534 -1
2262 2262 2.6E1
2262 2263 -1
2262 2277 -1
2262 2278 -1
2262 2279 -1
2262 2501 -1
2262 2502 -1
2262 2503 -1
2262 2517 -1
2262 2518 -1
2262 2519 -1
2262 2533 -1
2262 2534 -1
2262 2535 -1
2263 2263 2.6E1
2263 2264 -1
2263 2278 -1
2263 2279 -1
2263 2280 -1
2263 2502 -1
2263 2503 -1
2263 2504 -1
2263 2518 -1
2263 2519 -1
2263 2520 -1
2263 2534 -1
2263 2535 -1
2263 2536 -1
2264 2264 2.6E1
2264 2265 -1
2264 2279 -1
2264 2280 -1
2264 2281 -1
2264 2503 -1
2264 2504 -1
2264 2505 -1
2264 2519 -1
2264 2520 -1
2264 2521 -1
2264 2535 -1
2264 2536 -1
2264 2537 -1
2265 2265 2.6E1
2265 2266 -1
2265 2280 -1
2265 2281 -1
2265 2282 -1
2265 2504 -1
2265 2505 -1
2265 2506 -1
2265 2520 -1
2265 2521 -1
2265 2522 -1
2265 2536 -1
2265 2537 -1
2265 2538 -1
2266 2266 2.6E1
2266 2267 -1
2266 2281 -1
2266 2282 -1
2266 2283 -1
2266 2505 -1
2266 2506 -1
2266 2507 -1
2266 2521 -1
2266 2522 -1
2266 2523 -1
2266 2537 -1
2266 2538 -1
2266 2539 -1
2267 2267 2.6E1
2267 2268 -1
2267 2282 -1
2267 2283 -1
2267 2284 -1
2267 2506 -1
2267 2507 -1
2267 2508 -1
2267 2522 -1
2267 2523 -1
2267 2524 -1
2267 2538 -1
2267 2539 -1
2267 2540 -1
2268 2268 2.6E1
2268 2269 -1
2268 2283 -1
2268 2284 -1
2268 2285 -1
2268 2507 -1
2268 2508 -1
2268 2509 -1
2268 2523 -1
2268 2524 -1
2268 2525 -1
2268 2539 -1
2268 2540 -1
2268 2541 -1
2269 2269 2.6E1
2269 2270 -1
2269 2284 -1
2269 2285 -1
2269 2286 -1
2269 2508 -1
2269 2509 -1
2269 2510 -1
2269 2524 -1
2269 2525 -1
2269 2526 -1
2269 2540 -1
2269 2541 -1
2269 2542 -1
2270 2270 2.6E1
2270 2271 -1
2270 2285 -1
2270 2286 -1
2270 2287 -1
2270 2509 -1
2270 2510 -1
2270 2511 -1
2270 2525 -1
2270 2526 -1
2270 2527 -1
2270 2541 -1
2270 2542 -1
2270 2543 -1
2271 2271 2.6E1
2271 2272 -1
2271 2286 -1
2271 2287 -1
2271 2288 -1
2271 2510 -1
2271 2511 -1
2271 2512 -1
2271 2526 -1
2271 2527 -1
2271 2528 -1
2271 2542 -1
2271 2543 -1
2271 2544 -1
2272 2272 2.6E1
2272 2287 -1
2272 2288 -1
2272 2511 -1
2272 2512 -1
2272 2527 -1
2272 2528 -1
2272 2543 -1
2272 2544 -1
2273 2273 2.6E1
2273 2274 -1
2273 2289 -1
2273 2290 -1
2273 2513 -1
2273 2514 -1
2273 2529 -1
2273 2530 -1
2273 2545 -1
2273 2546 -1
2274 2274 2.6E1
2274 2275 -1
2274 2289 -1
2274 2290 -1
2274 2291 -1
2274 2513 -1
2274 2514 -1
2274 2515 -1
2274 2529 -1
2274 2530 -1
2274 2531 -1
2274 2545 -1
2274 2546 -1
2274 2547 -1
2275 2275 2.6E1
2275 2276 -1
2275 2290 -1
2275 2291 -1
2275 2292 -1
2275 2514 -1
2275 2515 -1
2275 2516 -1
2275 2530 -1
2275 2531 -1
2275 2532 -1
2275 2546 -1
2275 2547 -1
2275 2548 -1
2276 2276 2.6E1
2276 2277 -1
2276 2291 -1
2276 2292 -1
2276 2293 -1
2276 2515 -1
2276 2516 -1
2276 2517 -1
2276 2531 -1
2276 2532 -1
2276 2533 -1
2276 2547 -1
2276 2548 -1
2276 2549 -1
2277 2277 2.6E1
2277 2278 -1
2277 2292 -1
2277 2293 -1
2277 2294 -1
2277 2516 -1
2277 2517 -1
2277 2518 -1
2277 2532 -1
2277 2533 -1
2277 2534 -1
2277 2548 -1
2277 2549 -1
2277 2550 -1
2278 2278 2.6E1
2278 2279 -1
2278 2293 -1
2278 2294 -1
2278 2295 -1
2278 2517 -1
2278 2518 -1
2278 2519 -1
2278 2533 -1
2278 2534 -1
2278 2535 -1
2278 2549 -1
2278 2550 -1
2278 2551 -1
2279 2279 2.6E1
2279 2280 -1
2279 2294 -1
2279 2295 -1
2279 2296 -1
2279 2518 -1
2279 2519 -1
2279 2520 -1
2279 2534 -1
2279 2535 -1
2279 2536 -1
2279 2550 -1
2279 2551 -1
2279 2552 -1
2280 2280 2.6E1
2280 2281 -1
2280 2295 -1
2280 2296 -1
2280 2297 -1
2280 2519 -1
2280 2520 -1
2280 2521 -1
2280 2535 -1
2280 2536 -1
2280 2537 -1
2280 2551 -1
2280 2552 -1
2280 2553 -1
2281 2281 2.6E1
2281 2282 -1
2281 2296 -1
2281 2297 -1
2281 2298 -1
2281 2520 -1
2281 2521 -1
2281 2522 -1
2281 2536 -1
2281 2537 -1
2281 2538 -1
2281 2552 -1
2281 2553 -1
2281 2554 -1
2282 2282 2.6E1
2282 2283 -1
2282 2297 -1
2282 2298 -1
2282 2299 -1
2282 2521 -1
2282 2522 -1
2282 2523 -1
2282 2537 -1
2282 2538 -1
2282 2539 -1
2282 2553 -1
2282 2554 -1
2282 2555 -1
2283 2283 2.6E1
2283 2284 -1
2283 2298 -1
2283 2299 -1
2283 2300 -1
2283 2522 -1
2283 2523 -1
2283 2524 -1
2283 2538 -1
2283 2539 -1
2283 2540 -1
2283 2554 -1
2283 2555 -1
2283 2556 -1
2284 2284 2.6E1
2284 2285 -1
2284 2299 -1
2284 2300 -1
2284 2301 -1
2284 2523 -1
2284 2524 -1
2284 2525 -1
2284 2539 -1
2284 2540 -1
2284 2541 -1
2284 2555 -1
2284 2556 -1
2284 2557 -1
2285 2285 2.6E1
2285 2286 -1
2285 2300 -1
2285 2301 -1
2285 2302 -1
2285 2524 -1
2285 2525 -1
2285 2526 -1
2285 2540 -1
2285 2541 -1
2285 2542 -1
2285 2556 -1
2285 2557 -1
2285 2558 -1
2286 2286 2.6E1
2286 2287 -1
2286 2301 -1
2286 2302 -1
2286 2303 -1
2286 2525 -1
2286 2526 -1
2286 2527 -1
2286 2541 -1
2286 2542 -1
2286 2543 -1
2286 2557 -1
2286 2558 -1
2286 2559 -1
2287 2287 2.6E1
2287 2288 -1
2287 2302 -1
2287 2303 -1
2287 2304 -1
2287 2526 -1
2287 2527 -1
2287 2528 -1
2287 2542 -1
2287 2543 -1
2287 2544 -1
2287 2558 -1
2287 2559 -1
2287 2560 -1
2288 2288 2.6E1
2288 2303 -1
2288 2304 -1
2288 2527 -1
2288 2528 -1
2288 2543 -1
2288 2544 -1
2288 2559 -1
2288 2560 -1
2289 2289 2.6E1
2289 2290 -1
2289 2529 -1
2289 2530 -1
2289 2545 -1
2289 2546 -1
2290 2290 2.6E1
2290 2291 -1
2290 2529 -1
2290 2530 -1
2290 2531 -1
2290 2545 -1
2290 2546 -1
2290 2547 -1
2291 2291 2.6E1
2291 2292 -1
2291 2530 -1
2291 2531 -1
2291 2532 -1
2291 2546 -1
2291 2547 -1
2291 2548 -1
2292 2292 2.6E1
2292 2293 -1
2292 2531 -1
2292 2532 -1
2292 2533 -1
2292 2547 -1
2292 2548 -1
2292 2549 -1
2293 2293 2.6E1
2293 2294 -1
2293 2532 -1
2293 2533 -1
2293 2534 -1
2293 2548 -1
2293 2549 -1
2293 2550 -1
2294 2294 2.6E1
2294 2295 -1
2294 2533 -1
2294 2534 -1
2294 2535 -1
2294 2549 -1
2294 2550 -1
2294 2551 -1
2295 2295 2.6E1
2295 2296 -1
2295 2534 -1
2295 2535 -1
2295 2536 -1
2295 2550 -1
2295 2551 -1
2295 2552 -1
2296 2296 2.6E1
2296 2297 -1
2296 2535 -1
2296 2536 -1
2296 2537 -1
2296 2551 -1
2296 2552 -1
2296 2553 -1
2297 2297 2.6E1
2297 2298 -1
2297 2536 -1
2297 2537 -1
2297 2538 -1
2297 2552 -1
2297 2553 -1
2297 2554 -1
2298 2298 2.6E1
2298 2299 -1
2298 2537 -1
2298 2538 -1
2298 2539 -1
2298 2553 -1
2298 2554 -1
2298 2555 -1
2299 2299 2.6E1
2299 2300 -1
2299 2538 -1
2299 2539 -1
2299 2540 -1
2299 2554 -1
2299 2555 -1
2299 2556 -1
2300 2300 2.6E1
2300 2301 -1
2300 2539 -1
2300 2540 -1
2300 2541 -1
2300 2555 -1
2300 2556 -1
2300 2557 -1
2301 2301 2.6E1
2301 2302 -1
2301 2540 -1
2301 2541 -1
2301 2542 -1
2301 2556 -1
2301 2557 -1
2301 2558 -1
2302 2302 2.6E1
2302 2303 -1
2302 2541 -1
2302 2542 -1
2302 2543 -1
2302 2557 -1
2302 2558 -1
2302 2559 -1
2303 2303 2.6E1
2303 2304 -1
2303 2542 -1
2303 2543 -1
2303 2544 -1
2303 2558 -1
2303 2559 -1
2303 2560 -1
2304 2304 2.6E1
2304 2543 -1
2304 2544 -1
2304 2559 -1
2304 2560 -1
2305 2305 2.6E1
2305 2306 -1
2305 2321 -1
2305 2322 -1
2305 2561 -1
2305 2562 -1
2305 2577 -1
2305 2578 -1
2306 2306 2.6E1
2306 2307 -1
2306 2321 -1
2306 2322 -1
2306 2323 -1
2306 2561 -1
2306 2562 -1
2306 2563 -1
2306 2577 -1
2306 2578 -1
2306 2579 -1
2307 2307 2.6E1
2307 2308 -1
2307 2322 -1
2307 2323 -1
2307 2324 -1
2307 2562 -1
2307 2563 -1
2307 2564 -1
2307 2578 -1
2307 2579 -1
2307 2580 -1
2308 2308 2.6E1
2308 2309 -1
2308 2323 -1
2308 2324 -1
2308 2325 -1
2308 2563 -1
2308 2564 -1
2308 2565 -1
2308 2579 -1
2308 2580 -1
2308 2581 -1
2309 2309 2.6E1
2309 2310 -1
2309 2324 -1
2309 2325 -1
2309 2326 -1
2309 2564 -1
2309 2565 -1
2309 2566 -1
2309 2580 -1
2309 2581 -1
2309 2582 -1
2310 2310 2.6E1
2310 2311 -1
2310 2325 -1
2310 2326 -1
2310 2327 -1
2310 2565 -1
2310 2566 -1
2310 2567 -1
2310 2581 -1
2310 2582 -1
2310 2583 -1
2311 2311 2.6E1
2311 2312 -1
2311 2326 -1
2311 2327 -1
2311 2328 -1
2311 2566 -1
2311 2567 -1
2311 2568 -1
2311 2582 -1
2311 2583 -1
2311 2584 -1
2312 2312 2.6E1
2312 2313 -1
2312 2327 -1
2312 2328 -1
2312 2329 -1
2312 2567 -1
2312 2568 -1
2312 2569 -1
2312 2583 -1
2312 2584 -1
2312 2585 -1
2313 2313 2.6E1
2313 2314 -1
2313 2328 -1
2313 2329 -1
2313 2330 -1
2313 2568 -1
2313 2569 -1
2313 2570 -1
2313 2584 -1
2313 2585 -1
2313 2586 -1
2314 2314 2.6E1
2314 2315 -1
2314 2329 -1
2314 2330 -1
2314 2331 -1
2314 2569 -1
2314 2570 -1
2314 2571 -1
2314 2585 -1
2314 2586 -1
2314 2587 -1
2315 2315 2.6E1
2315 2316 -1
2315 2330 -1
2315 2331 -1
2315 2332 -1
2315 2570 -1
2315 2571 -1
2315 2572 -1
2315 2586 -1
2315 2587 -1
2315 2588 -1
2316 2316 2.6E1
2316 2317 -1
2316 2331 -1
2316 2332 -1
2316 2333 -1
2316 2571 -1
2316 2572 -1
2316 2573 -1
2316 2587 -1
2316 2588 -1
2316 2589 -1
2317 2317 2.6E1
2317 2318 -1
2317 2332 -1
2317 2333 -1
2317 2334 -1
2317 2572 -1
2317 2573 -1
2317 2574 -1
2317 2588 -1
2317 2589 -1
2317 2590 -1
2318 2318 2.6E1
2318 2319 -1
2318 2333 -1
2318 2334 -1
2318 2335 -1
2318 2573 -1
2318 2574 -1
2318 2575 -1
2318 2589 -1
2318 2590 -1
2318 2591 -1
2319 2319 2.6E1
2319 2320 -1
2319 2334 -1
2319 2335 -1
2319 2336 -1
2319 2574 -1
2319 2575 -1
2319 2576 -1
2319 2590 -1
2319 2591 -1
2319 2592 -1
2320 2320 2.6E1
2320 2335 -1
2320 2336 -1
2320 2575 -1
2320 2576 -1
2320 2591 -1
2320 2592 -1
2321 2321 2.6E1
2321 2322 -1
2321 2337 -1
2321 2338 -1
2321 2561 -1
2321 2562 -1
2321 2577 -1
2321 2578 -1
2321 2593 -1
2321 2594 -1
2322 2322 2.6E1
2322 2323 -1
2322 2337 -1
2322 2338 -1
2322 2339 -1
2322 2561 -1
2322 2562 -1
2322 2563 -1
2322 2577 -1
2322 2578 -1
2322 2579 -1
2322 2593 -1
2322 2594 -1
2322 2595 -1
2323 2323 2.6E1
2323 2324 -1
2323 2338 -1
2323 2339 -1
2323 2340 -1
2323 2562 -1
2323 2563 -1
2323 2564 -1
2323 2578 -1
2323 2579 -1
2323 2580 -1
2323 2594 -1
2323 2595 -1
2323 2596 -1
2324 2324 2.6E1
2324 2325 -1
2324 2339 -1
2324 2340 -1
2324 2341 -1
2324 2563 -1
2324 2564 -1
2324 2565 -1
2324 2579 -1
2324 2580 -1
2324 2581 -1
2324 2595 -1
2324 2596 -1
2324 2597 -1
2325 2325 2.6E1
2325 2326 -1
2325 2340 -1
2325 2341 -1
2325 2342 -1
2325 2564 -1
2325 2565 -1
2325 2566 -1
2325 2580 -1
2325 2581 -1
2325 2582 -1
2325 2596 -1
2325 2597 -1
2325 2598 -1
2326 2326 2.6E1
2326 2327 -1
2326 2341 -1
2326 2342 -1
2326 2343 -1
2326 2565 -1
2326 2566 -1
2326 2567 -1
2326 2581 -1
2326 2582 -1
2326 2583 -1
2326 2597 -1
2326 2598 -1
2326 2599 -1
2327 2327 2.6E1
2327 2328 -1
2327 2342 -1
2327 2343 -1
2327 2344 -1
2327 2566 -1
2327 2567 -1
2327 2568 -1
2327 2582 -1
2327 2583 -1
2327 2584 -1
2327 2598 -1
2327 2599 -1
2327 2600 -1
2328 2328 2.6E1
2328 2329 -1
2328 2343 -1
2328 2344 -1
2328 2345 -1
2328 2567 -1
2328 2568 -1
2328 2569 -1
2328 2583 -1
2328 2584 -1
2328 2585 -1
2328 2599 -1
2328 2600 -1
2328 2601 -1
2329 2329 2.6E1
2329 2330 -1
2329 2344 -1
2329 2345 -1
2329 2346 -1
2329 2568 -1
2329 2569 -1
2329 2570 -1
2329 2584 -1
2329 2585 -1
2329 2586 -1
2329 2600 -1
2329 2601 -1
2329 2602 -1
2330 2330 2.6E1
2330 2331 -1
2330 2345 -1
2330 2346 -1
2330 2347 -1
2330 2569 -1
2330 2570 -1
2330 2571 -1
2330 2585 -1
2330 2586 -1
2330 2587 -1
2330 2601 -1
2330 2602 -1
2330 2603 -1
2331 2331 2.6E1
2331 2332 -1
2331 2346 -1
2331 2347 -1
2331 2348 -1
2331 2570 -1
2331 2571 -1
2331 2572 -1
2331 2586 -1
2331 2587 -1
2331 2588 -1
2331 2602 -1
2331 2603 -1
2331 2604 -1
2332 2332 2.6E1
2332 2333 -1
2332 2347 -1
2332 2348 -1
2332 2349 -1
2332 2571 -1
2332 2572 -1
2332 2573 -1
2332 2587 -1
2332 2588 -1
2332 2589 -1
2332 2603 -1
2332 2604 -1
2332 2605 -1
2333 2333 2.6E1
2333 2334 -1
2333 2348 -1
2333 2349 -1
2333 2350 -1
2333 2572 -1
2333 2573 -1
2333 2574 -1
2333 2588 -1
2333 2589 -1
2333 2590 -1
2333 2604 -1
2333 2605 -1
2333 2606 -1
2334 2334 2.6E1
2334 2335 -1
2334 2349 -1
2334 2350 -1
2334 2351 -1
2334 2573 -1
2334 2574 -1
2334 2575 -1
2334 2589 -1
2334 2590 -1
2334 2591 -1
2334 2605 -1
2334 2606 -1
2334 2607 -1
2335 2335 2.6E1
2335 2336 -1
2335 2350 -1
2335 2351 -1
2335 2352 -1
2335 2574 -1
2335 2575 -1
2335 2576 -1
2335 2590 -1
2335 2591 -1
2335 2592 -1
2335 2606 -1
2335 2607 -1
2335 2608 -1
2336 2336 2.6E1
2336 2351 -1
2336 2352 -1
2336 2575 -1
2336 2576 -1
2336 2591 -1
2336 2592 -1
2336 2607 -1
2336 2608 -1
2337 2337 2.6E1
2337 2338 -1
2337 2353 -1
2337 2354 -1
2337 2577 -1
2337 2578 -1
2337 2593 -1
2337 2594 -1
2337 2609 -1
2337 2610 -1
2338 2338 2.6E1
2338 2339 -1
2338 2353 -1
2338 2354 -1
2338 2355 -1
2338 2577 -1
2338 2578 -1
2338 2579 -1
2338 2593 -1
2338 2594 -1
2338 2595 -1
2338 2609 -1
2338 2610 -1
2338 2611 -1
2339 2339 2.6E1
2339 2340 -1
2339 2354 -1
2339 2355 -1
2339 2356 -1
2339 2578 -1
2339 2579 -1
2339 2580 -1
2339 2594 -1
2339 2595 -1
2339 2596 -1
2339 2610 -1
2339 2611 -1
2339 2612 -1
2340 2340 2.6E1
2340 2341 -1
2340 2355 -1
2340 2356 -1
2340 2357 -1
2340 2579 -1
2340 2580 -1
2340 2581 -1
2340 2595 -1
2340 2596 -1
2340 2597 -1
2340 2611 -1
2340 2612 -1
2340 2613 -1
2341 2341 2.6E1
2341 2342 -1
2341 2356 -1
2341 2357 -1
2341 2358 -1
2341 2580 -1
2341 2581 -1
2341 2582 -1
2341 2596 -1
2341 2597 -1
2341 2598 -1
2341 2612 -1
2341 2613 -1
2341 2614 -1
2342 2342 2.6E1
2342 2343 -1
2342 2357 -1
2342 2358 -1
2342 2359 -1
2342 2581 -1
2342 2582 -1
2342 2583 -1
2342 2597 -1
2342 2598 -1
2342 2599 -1
2342 2613 -1
2342 2614 -1
2342 2615 -1
2343 2343 2.6E1
2343 2344 -1
2343 2358 -1
2343 2359 -1
2343 2360 -1
2343 2582 -1
2343 2583 -1
2343 2584 -1
2343 2598 -1
2343 2599 -1
2343 2600 -1
2343 2614 -1
2343 2615 -1
2343 2616 -1
2344 2344 2.6E1
2344 2345 -1
2344 2359 -1
2344 2360 -1
2344 2361 -1
2344 2583 -1
2344 2584 -1
2344 2585 -1
2344 2599 -1
2344 2600 -1
2344 2601 -1
2344 2615 -1
2344 2616 -1
2344 2617 -1
2345 2345 2.6E1
2345 2346 -1
2345 2360 -1
2345 2361 -1
2345 2362 -1
2345 2584 -1
2345 2585 -1
2345 2586 -1
2345 2600 -1
2345 2601 -1
2345 2602 -1
2345 2616 -1
2345 2617 -1
2345 2618 -1
2346 2346 2.6E1
2346 2347 -1
2346 2361 -1
2346 2362 -1
2346 2363 -1
2346 2585 -1
2346 2586 -1
2346 2587 -1
2346 2601 -1
2346 2602 -1
2346 2603 -1
2346 2617 -1
2346 2618 -1
2346 2619 -1
2347 2347 2.6E1
2347 2348 -1
2347 2362 -1
2347 2363 -1
2347 2364 -1
2347 2586 -1
2347 2587 -1
2347 2588 -1
2347 2602 -1
2347 2603 -1
2347 2604 -1
2347 2618 -1
2347 2619 -1
2347 2620 -1
2348 2348 2.6E1
2348 2349 -1
2348 2363 -1
2348 2364 -1
2348 2365 -1
2348 2587 -1
2348 2588 -1
2348 2589 -1
2348 2603 -1
2348 2604 -1
2348 2605 -1
2348 2619 -1
2348 2620 -1
2348 2621 -1
2349 2349 2.6E1
2349 2350 -1
2349 2364 -1
2349 2365 -1
2349 2366 -1
2349 2588 -1
2349 2589 -1
2349 2590 -1
2349 2604 -1
2349 2605 -1
2349 2606 -1
2349 2620 -1
2349 2621 -1
2349 2622 -1
2350 2350 2.6E1
2350 2351 -1
2350 2365 -1
2350 2366 -1
2350 2367 -1
2350 2589 -1
2350 2590 -1
2350 2591 -1
2350 2605 -1
2350 2606 -1
2350 2607 -1
2350 2621 -1
2350 2622 -1
2350 2623 -1
2351 2351 2.6E1
2351 2352 -1
2351 2366 -1
2351 2367 -1
2351 2368 -1
2351 2590 -1
2351 2591 -1
2351 2592 -1
2351 2606 -1
2351 2607 -1
2351 2608 -1
2351 2622 -1
2351 2623 -1
2351 2624 -1
2352 2352 2.6E1
2352 2367 -1
2352 2368 -1
2352 2591 -1
2352 2592 -1
2352 2607 -1
2352 2608 -1
2352 2623 -1
2352 2624 -1
2353 2353 2.6E1
2353 2354 -1
2353 2369 -1
2353 2370 -1
2353 2593 -1
2353 2594 -1
2353 2609 -1
2353 2610 -1
2353 2625 -1
2353 2626 -1
2354 2354 2.6E1
2354 2355 -1
2354 2369 -1
2354 2370 -1
2354 2371 -1
2354 2593 -1
2354 2594 -1
2354 2595 -1
2354 2609 -1
2354 2610 -1
2354 2611 -1
2354 2625 -1
2354 2626 -1
2354 2627 -1
2355 2355 2.6E1
2355 2356 -1
2355 2370 -1
2355 2371 -1
2355 2372 -1
2355 2594 -1
2355 2595 -1
2355 2596 -1
2355 2610 -1
2355 2611 -1
2355 2612 -1
2355 2626 -1
2355 2627 -1
2355 2628 -1
2356 2356 2.6E1
2356 2357 -1
2356 2371 -1
2356 2372 -1
2356 2373 -1
2356 2595 -1
2356 2596 -1
2356 2597 -1
2356 2611 -1
2356 2612 -1
2356 2613 -1
2356 2627 -1
2356 2628 -1
2356 2629 -1
2357 2357 2.6E1
2357 2358 -1
2357 2372 -1
2357 2373 -1
2357 2374 -1
2357 2596 -1
2357 2597 -1
2357 2598 -1
2357 2612 -1
2357 2613 -1
2357 2614 -1
2357 2628 -1
2357 2629 -1
2357 2630 -1
2358 2358 2.6E1
2358 2359 -1
2358 2373 -1
2358 2374 -1
2358 2375 -1
2358 2597 -1
2358 2598 -1
2358 2599 -1
2358 2613 -1
2358 2614 -1
2358 2615 -1
2358 2629 -1
2358 2630 -1
2358 2631 -1
2359 2359 2.6E1
2359 2360 -1
2359 2374 -1
2359 2375 -1
2359 2376 -1
2359 2598 -1
2359 2599 -1
2359 2600 -1
2359 2614 -1
2359 2615 -1
2359 2616 -1
2359 2630 -1
2359 2631 -1
2359 2632 -1
2360 2360 2.6E1
2360 2361 -1
2360 2375 -1
2360 2376 -1
2360 2377 -1
2360 2599 -1
2360 2600 -1
2360 2601 -1
2360 2615 -1
2360 2616 -1
2360 2617 -1
2360 2631 -1
2360 2632 -1
2360 2633 -1
2361 2361 2.6E1
2361 2362 -1
2361 2376 -1
2361 2377 -1
2361 2378 -1
2361 2600 -1
2361 2601 -1
2361 2602 -1
2361 2616 -1
2361 2617 -1
2361 2618 -1
2361 2632 -1
2361 2633 -1
2361 2634 -1
2362 2362 2.6E1
2362 2363 -1
2362 2377 -1
2362 2378 -1
2362 2379 -1
2362 2601 -1
2362 2602 -1
2362 2603 -1
2362 2617 -1
2362 2618 -1
2362 2619 -1
2362 2633 -1
2362 2634 -1
2362 2635 -1
2363 2363 2.6E1
2363 2364 -1
2363 2378 -1
2363 2379 -1
2363 2380 -1
2363 2602 -1
2363 2603 -1
2363 2604 -1
2363 2618 -1
2363 2619 -1
2363 2620 -1
2363 2634 -1
2363 2635 -1
2363 2636 -1
2364 2364 2.6E1
2364 2365 -1
2364 2379 -1
2364 2380 -1
2364 2381 -1
2364 2603 -1
2364 2604 -1
2364 2605 -1
2364 2619 -1
2364 2620 -1
2364 2621 -1
2364 2635 -1
2364 2636 -1
2364 2637 -1
2365 2365 2.6E1
2365 2366 -1
2365 2380 -1
2365 2381 -1
2365 2382 -1
2365 2604 -1
2365 2605 -1
2365 2606 -1
2365 2620 -1
2365 2621 -1
2365 2622 -1
2365 2636 -1
2365 2637 -1
2365 2638 -1
2366 2366 2.6E1
2366 2367 -1
2366 2381 -1
2366 2382 -1
2366 2383 -1
2366 2605 -1
2366 2606 -1
2366 2607 -1
2366 2621 -1
2366 2622 -1
2366 2623 -1
2366 2637 -1
2366 2638 -1
2366 2639 -1
2367 2367 2.6E1
2367 2368 -1
2367 2382 -1
2367 2383 -1
2367 2384 -1
2367 2606 -1
2367 2607 -1
2367 2608 -1
2367 2622 -1
2367 2623 -1
2367 2624 -1
2367 2638 -1
2367 2639 -1
2367 2640 -1
2368 2368 2.6E1
2368 2383 -1
2368 2384 -1
2368 2607 -1
2368 2608 -1
2368 2623 -1
2368 2624 -1
2368 2639 -1
2368 2640 -1
2369 2369 2.6E1
2369 2370 -1
2369 2385 -1
2369 2386 -1
2369 2609 -1
2369 2610 -1
2369 2625 -1
2369 2626 -1
2369 2641 -1
2369 2642 -1
2370 2370 2.6E1
2370 2371 -1
2370 2385 -1
2370 2386 -1
2370 2387 -1
2370 2609 -1
2370 2610 -1
2370 2611 -1
2370 2625 -1
2370 2626 -1
2370 2627 -1
2370 2641 -1
2370 2642 -1
2370 2643 -1
2371 2371 2.6E1
2371 2372 -1
2371 2386 -1
2371 2387 -1
2371 2388 -1
2371 2610 -1
2371 2611 -1
2371 2612 -1
2371 2626 -1
2371 2627 -1
2371 2628 -1
2371 2642 -1
2371 2643 -1
2371 2644 -1
2372 2372 2.6E1
2372 2373 -1
2372 2387 -1
2372 2388 -1
2372 2389 -1
2372 2611 -1
2372 2612 -1
2372 2613 -1
2372 2627 -1
2372 2628 -1
2372 2629 -1
2372 2643 -1
2372 2644 -1
2372 2645 -1
2373 2373 2.6E1
2373 2374 -1
2373 2388 -1
2373 2389 -1
2373 2390 -1
2373 2612 -1
2373 2613 -1
2373 2614 -1
2373 2628 -1
2373 2629 -1
2373 2630 -1
2373 2644 -1
2373 2645 -1
2373 2646 -1
2374 2374 2.6E1
2374 2375 -1
2374 2389 -1
2374 2390 -1
2374 2391 -1
2374 2613 -1
2374 2614 -1
2374 2615 -1
2374 2629 -1
2374 2630 -1
2374 2631 -1
2374 2645 -1
2374 2646 -1
2374 2647 -1
2375 2375 2.6E1
2375 2376 -1
2375 2390 -1
2375 2391 -1
2375 2392 -1
2375 2614 -1
2375 2615 -1
2375 2616 -1
2375 2630 -1
2375 2631 -1
2375 2632 -1
2375 2646 -1
2375 2647 -1
2375 2648 -1
2376 2376 2.6E1
2376 2377 -1
2376 2391 -1
2376 2392 -1
2376 2393 -1
2376 2615 -1
2376 2616 -1
2376 2617 -1
2376 2631 -1
2376 2632 -1
2376 2633 -1
2376 2647 -1
2376 2648 -1
2376 2649 -1
2377 2377 2.6E1
2377 2378 -1
2377 2392 -1
2377 2393 -1
2377 2394 -1
2377 2616 -1
2377 2617 -1
2377 2618 -1
2377 2632 -1
2377 2633 -1
2377 2634 -1
2377 2648 -1
2377 2649 -1
2377 2650 -1
2378 2378 2.6E1
2378 2379 -1
2378 2393 -1
2378 2394 -1
2378 2395 -1
2378 2617 -1
2378 2618 -1
2378 2619 -1
2378 2633 -1
2378 2634 -1
2378 2635 -1
2378 2649 -1
2378 2650 -1
2378 2651 -1
2379 2379 2.6E1
2379 2380 -1
2379 2394 -1
2379 2395 -1
2379 2396 -1
2379 2618 -1
2379 2619 -1
2379 2620 -1
2379 2634 -1
2379 2635 -1
2379 2636 -1
2379 2650 -1
2379 2651 -1
2379 2652 -1
2380 2380 2.6E1
2380 2381 -1
2380 2395 -1
2380 2396 -1
2380 2397 -1
2380 2619 -1
2380 2620 -1
2380 2621 -1
2380 2635 -1
2380 2636 -1
2380 2637 -1
2380 2651 -1
2380 2652 -1
2380 2653 -1
2381 2381 2.6E1
2381 2382 -1
2381 2396 -1
2381 2397 -1
2381 2398 -1
2381 2620 -1
2381 2621 -1
2381 2622 -1
2381 2636 -1
2381 2637 -1
2381 2638 -1
2381 2652 -1
2381 2653 -1
2381 2654 -1
2382 2382 2.6E1
2382 2383 -1
2382 2397 -1
2382 2398 -1
2382 2399 -1
2382 2621 -1
2382 2622 -1
2382 2623 -1
2382 2637 -1
2382 2638 -1
2382 2639 -1
2382 2653 -1
2382 2654 -1
2382 2655 -1
2383 2383 2.6E1
2383 2384 -1
2383 2398 -1
2383 2399 -1
2383 2400 -1
2383 2622 -1
2383 2623 -1
2383 2624 -1
2383 2638 -1
2383 2639 -1
2383 2640 -1
2383 2654 -1
2383 2655 -1
2383 2656 -1
2384 2384 2.6E1
2384 2399 -1
2384 2400 -1
2384 2623 -1
2384 2624 -1
2384 2639 -1
2384 2640 -1
2384 2655 -1
2384 2656 -1
2385 2385 2.6E1
2385 2386 -1
2385 2401 -1
2385 2402 -1
2385 2625 -1
2385 2626 -1
2385 2641 -1
2385 2642 -1
2385 2657 -1
2385 2658 -1
2386 2386 2.6E1
2386 2387 -1
2386 2401 -1
2386 2402 -1
2386 2403 -1
2386 2625 -1
2386 2626 -1
2386 2627 -1
2386 2641 -1
2386 2642 -1
2386 2643 -1
2386 2657 -1
2386 2658 -1
2386 2659 -1
2387 2387 2.6E1
2387 2388 -1
2387 2402 -1
2387 2403 -1
2387 2404 -1
2387 2626 -1
2387 2627 -1
2387 2628 -1
2387 2642 -1
2387 2643 -1
2387 2644 -1
2387 2658 -1
2387 2659 -1
2387 2660 -1
2388 2388 2.6E1
2388 2389 -1
2388 2403 -1
2388 2404 -1
2388 2405 -1
2388 2627 -1
2388 2628 -1
2388 2629 -1
2388 2643 -1
2388 2644 -1
2388 2645 -1
2388 2659 -1
2388 2660 -1
2388 2661 -1
2389 2389 2.6E1
2389 2390 -1
2389 2404 -1
2389 2405 -1
2389 2406 -1
2389 2628 -1
2389 2629 -1
2389 2630 -1
2389 2644 -1
2389 2645 -1
2389 2646 -1
2389 2660 -1
2389 2661 -1
2389 2662 -1
2390 2390 2.6E1
2390 2391 -1
2390 2405 -1
2390 2406 -1
2390 2407 -1
2390 2629 -1
2390 2630 -1
2390 2631 -1
2390 2645 -1
2390 2646 -1
2390 2647 -1
2390 2661 -1
2390 2662 -1
2390 2663 -1
2391 2391 2.6E1
2391 2392 -1
2391 2406 -1
2391 2407 -1
2391 2408 -1
2391 2630 -1
2391 2631 -1
2391 2632 -1
2391 2646 -1
2391 2647 -1
2391 2648 -1
2391 2662 -1
2391 2663 -1
2391 2664 -1
2392 2392 2.6E1
2392 2393 -1
2392 2407 -1
2392 2408 -1
2392 2409 -1
2392 2631 -1
2392 2632 -1
2392 2633 -1
2392 2647 -1
2392 2648 -1
2392 2649 -1
2392 2663 -1
2392 2664 -1
2392 2665 -1
2393 2393 2.6E1
2393 2394 -1
2393 2408 -1
2393 2409 -1
2393 2410 -1
2393 2632 -1
2393 2633 -1
2393 2634 -1
2393 2648 -1
2393 2649 -1
2393 2650 -1
2393 2664 -1
2393 2665 -1
2393 2666 -1
2394 2394 2.6E1
2394 2395 -1
2394 2409 -1
2394 2410 -1
2394 2411 -1
2394 2633 -1
2394 2634 -1
2394 2635 -1
2394 2649 -1
2394 2650 -1
2394 2651 -1
2394 2665 -1
2394 2666 -1
2394 2667 -1
2395 2395 2.6E1
2395 2396 -1
2395 2410 -1
2395 2411 -1
2395 2412 -1
2395 2634 -1
2395 2635 -1
2395 2636 -1
2395 2650 -1
2395 2651 -1
2395 2652 -1
2395 2666 -1
2395 2667 -1
2395 2668 -1
2396 2396 2.6E1
2396 2397 -1
2396 2411 -1
2396 2412 -1
2396 2413 -1
2396 2635 -1
2396 2636 -1
2396 2637 -1
2396 2651 -1
2396 2652 -1
2396 2653 -1
2396 2667 -1
2396 2668 -1
2396 2669 -1
2397 2397 2.6E1
2397 2398 -1
2397 2412 -1
2397 2413 -1
2397 2414 -1
2397 2636 -1
2397 2637 -1
2397 2638 -1
2397 2652 -1
2397 2653 -1
2397 2654 -1
2397 2668 -1
2397 2669 -1
2397 2670 -1
2398 2398 2.6E1
2398 2399 -1
2398 2413 -1
2398 2414 -1
2398 2415 -1
2398 2637 -1
2398 2638 -1
2398 2639 -1
2398 2653 -1
2398 2654 -1
2398 2655 -1
2398 2669 -1
2398 2670 -1
2398 2671 -1
2399 2399 2.6E1
2399 2400 -1
2399 2414 -1
2399 2415 -1
2399 2416 -1
2399 2638 -1
2399 2639 -1
2399 2640 -1
2399 2654 -1
2399 2655 -1
2399 2656 -1
2399 2670 -1
2399 2671 -1
2399 2672 -1
2400 2400 2.6E1
2400 2415 -1
2400 2416 -1
2400 2639 -1
2400 2640 -1
2400 2655 -1
2400 2656 -1
2400 2671 -1
2400 2672 -1
2401 2401 2.6E1
2401 2402 -1
2401 2417 -1
2401 2418 -1
2401 2641 -1
2401 2642 -1
2401 2657 -1
2401 2658 -1
2401 2673 -1
2401 2674 -1
2402 2402 2.6E1
2402 2403 -1
2402 2417 -1
2402 2418 -1
2402 2419 -1
2402 2641 -1
2402 2642 -1
2402 2643 -1
2402 2657 -1
2402 2658 -1
2402 2659 -1
2402 2673 -1
2402 2674 -1
2402 2675 -1
2403 2403 2.6E1
2403 2404 -1
2403 2418 -1
2403 2419 -1
2403 2420 -1
2403 2642 -1
2403 2643 -1
2403 2644 -1
2403 2658 -1
2403 2659 -1
2403 2660 -1
2403 2674 -1
2403 2675 -1
2403 2676 -1
2404 2404 2.6E1
2404 2405 -1
2404 2419 -1
2404 2420 -1
2404 2421 -1
2404 2643 -1
2404 2644 -1
2404 2645 -1
2404 2659 -1
2404 2660 -1
2404 2661 -1
2404 2675 -1
2404 2676 -1
2404 2677 -1
2405 2405 2.6E1
2405 2406 -1
2405 2420 -1
2405 2421 -1
2405 2422 -1
2405 2644 -1
2405 2645 -1
2405 2646 -1
2405 2660 -1
2405 2661 -1
2405 2662 -1
2405 2676 -1
2405 2677 -1
2405 2678 -1
2406 2406 2.6E1
2406 2407 -1
2406 2421 -1
2406 2422 -1
2406 2423 -1
2406 2645 -1
2406 2646 -1
2406 2647 -1
2406 2661 -1
2406 2662 -1
2406 2663 -1
2406 2677 -1
2406 2678 -1
2406 2679 -1
2407 2407 2.6E1
2407 2408 -1
2407 2422 -1
2407 2423 -1
2407 2424 -1
2407 2646 -1
2407 2647 -1
2407 2648 -1
2407 2662 -1
2407 2663 -1
2407 2664 -1
2407 2678 -1
2407 2679 -1
2407 2680 -1
2408 2408 2.6E1
2408 2409 -1
2408 2423 -1
2408 2424 -1
2408 2425 -1
2408 2647 -1
2408 2648 -1
2408 2649 -1
2408 2663 -1
2408 2664 -1
2408 2665 -1
2408 2679 -1
2408 2680 -1
2408 2681 -1
2409 2409 2.6E1
2409 2410 -1
2409 2424 -1
2409 2425 -1
2409 2426 -1
2409 2648 -1
2409 2649 -1
2409 2650 -1
2409 2664 -1
2409 2665 -1
2409 2666 -1
2409 2680 -1
2409 2681 -1
2409 2682 -1
2410 2410 2.6E1
2410 2411 -1
2410 2425 -1
2410 2426 -1
2410 2427 -1
2410 2649 -1
2410 2650 -1
2410 2651 -1
2410 2665 -1
2410 2666 -1
2410 2667 -1
2410 2681 -1
2410 2682 -1
2410 2683 -1
2411 2411 2.6E1
2411 2412 -1
2411 2426 -1
2411 2427 -1
2411 2428 -1
2411 2650 -1
2411 2651 -1
2411 2652 -1
2411 2666 -1
2411 2667 -1
2411 2668 -1
2411 2682 -1
2411 2683 -1
2411 2684 -1
2412 2412 2.6E1
2412 2413 -1
2412 2427 -1
2412 2428 -1
2412 2429 -1
2412 2651 -1
2412 2652 -1
2412 2653 -1
2412 2667 -1
2412 2668 -1
2412 2669 -1
2412 2683 -1
2412 2684 -1
2412 2685 -1
2413 2413 2.6E1
2413 2414 -1
2413 2428 -1
2413 2429 -1
2413 2430 -1
2413 2652 -1
2413 2653 -1
2413 2654 -1
2413 2668 -1
2413 2669 -1
2413 2670 -1
2413 2684 -1
2413 2685 -1
2413 2686 -1
2414 2414 2.6E1
2414 2415 -1
2414 2429 -1
2414 2430 -1
2414 2431 -1
2414 2653 -1
2414 2654 -1
2414 2655 -1
2414 2669 -1
2414 2670 -1
2414 2671 -1
2414 2685 -1
2414 2686 -1
2414 2687 -1
2415 2415 2.6E1
2415 2416 -1
2415 2430 -1
2415 2431 -1
2415 2432 -1
2415 2654 -1
2415 2655 -1
2415 2656 -1
2415 2670 -1
2415 2671 -1
2415 2672 -1
2415 2686 -1
2415 2687 -1
2415 2688 -1
2416 2416 2.6E1
2416 2431 -1
2416 2432 -1
2416 2655 -1
2416 2656 -1
2416 2671 -1
2416 2672 -1
2416 2687 -1
2416 2688 -1
2417 2417 2.6E1
2417 2418 -1
2417 2433 -1
2417 2434 -1
2417 2657 -1
2417 2658 -1
2417 2673 -1
2417 2674 -1
2417 2689 -1
2417 2690 -1
2418 2418 2.6E1
2418 2419 -1
2418 2433 -1
2418 2434 -1
2418 2435 -1
2418 2657 -1
2418 2658 -1
2418 2659 -1
2418 2673 -1
2418 2674 -1
2418 2675 -1
2418 2689 -1
2418 2690 -1
2418 2691 -1
2419 2419 2.6E1
2419 2420 -1
2419 2434 -1
2419 2435 -1
2419 2436 -1
2419 2658 -1
2419 2659 -1
2419 2660 -1
2419 2674 -1
2419 2675 -1
2419 2676 -1
2419 2690 -1
2419 2691 -1
2419 2692 -1
2420 2420 2.6E1
2420 2421 -1
2420 2435 -1
2420 2436 -1
2420 2437 -1
2420 2659 -1
2420 2660 -1
2420 2661 -1
2420 2675 -1
2420 2676 -1
2420 2677 -1
2420 2691 -1
2420 2692 -1
2420 2693 -1
2421 2421 2.6E1
2421 2422 -1
2421 2436 -1
2421 2437 -1
2421 2438 -1
2421 2660 -1
2421 2661 -1
2421 2662 -1
2421 2676 -1
2421 2677 -1
2421 2678 -1
2421 2692 -1
2421 2693 -1
2421 2694 -1
2422 2422 2.6E1
2422 2423 -1
2422 2437 -1
2422 2438 -1
2422 2439 -1
2422 2661 -1
2422 2662 -1
2422 2663 -1
2422 2677 -1
2422 2678 -1
2422 2679 -1
2422 2693 -1
2422 2694 -1
2422 2695 -1
2423 2423 2.6E1
2423 2424 -1
2423 2438 -1
2423 2439 -1
2423 2440 -1
2423 2662 -1
2423 2663 -1
2423 2664 -1
2423 2678 -1
2423 2679 -1
2423 2680 -1
2423 2694 -1
2423 2695 -1
2423 2696 -1
2424 2424 2.6E1
2424 2425 -1
2424 2439 -1
2424 2440 -1
2424 2441 -1
2424 2663 -1
2424 2664 -1
2424 2665 -1
2424 2679 -1
2424 2680 -1
2424 2681 -1
2424 2695 -1
2424 2696 -1
2424 2697 -1
2425 2425 2.6E1
2425 2426 -1
2425 2440 -1
2425 2441 -1
2425 2442 -1
2425 2664 -1
2425 2665 -1
2425 2666 -1
2425 2680 -1
2425 2681 -1
2425 2682 -1
2425 2696 -1
2425 2697 -1
2425 2698 -1
2426 2426 2.6E1
2426 2427 -1
2426 2441 -1
2426 2442 -1
2426 2443 -1
2426 2665 -1
2426 2666 -1
2426 2667 -1
2426 2681 -1
2426 2682 -1
2426 2683 -1
2426 2697 -1
2426 2698 -1
2426 2699 -1
2427 2427 2.6E1
2427 2428 -1
2427 2442 -1
2427 2443 -1
2427 2444 -1
2427 2666 -1
2427 2667 -1
2427 2668 -1
2427 2682 -1
2427 2683 -1
2427 2684 -1
2427 2698 -1
2427 2699 -1
2427 2700 -1
2428 2428 2.6E1
2428 2429 -1
2428 2443 -1
2428 2444 -1
2428 2445 -1
2428 2667 -1
2428 2668 -1
2428 2669 -1
2428 2683 -1
2428 2684 -1
2428 2685 -1
2428 2699 -1
2428 2700 -1
2428 2701 -1
2429 2429 2.6E1
2429 2430 -1
2429 2444 -1
2429 2445 -1
2429 2446 -1
2429 2668 -1
2429 2669 -1
2429 2670 -1
2429 2684 -1
2429 2685 -1
2429 2686 -1
2429 2700 -1
2429 2701 -1
2429 2702 -1
2430 2430 2.6E1
2430 2431 -1
2430 2445 -1
2430 2446 -1
2430 2447 -1
2430 2669 -1
2430 2670 -1
2430 2671 -1
2430 2685 -1
2430 2686 -1
2430 2687 -1
2430 2701 -1
2430 2702 -1
2430 2703 -1
2431 2431 2.6E1
2431 2432 -1
2431 2446 -1
2431 2447 -1
2431 2448 -1
2431 2670 -1
2431 2671 -1
2431 2672 -1
2431 2686 -1
2431 2687 -1
2431 2688 -1
2431 2702 -1
2431 2703 -1
2431 2704 -1
2432 2432 2.6E1
2432 2447 -1
2432 2448 -1
2432 2671 -1
2432 2672 -1
2432 2687 -1
2432 2688 -1
2432 2703 -1
2432 2704 -1
2433 2433 2.6E1
2433 2434 -1
2433 2449 -1
2433 2450 -1
2433 2673 -1
2433 2674 -1
2433 2689 -1
2433 2690 -1
2433 2705 -1
2433 2706 -1
2434 2434 2.6E1
2434 2435 -1
2434 2449 -1
2434 2450 -1
2434 2451 -1
2434 2673 -1
2434 2674 -1
2434 2675 -1
2434 2689 -1
2434 2690 -1
2434 2691 -1
2434 2705 -1
2434 2706 -1
2434 2707 -1
2435 2435 2.6E1
2435 2436 -1
2435 2450 -1
2435 2451 -1
2435 2452 -1
2435 2674 -1
2435 2675 -1
2435 2676 -1
2435 2690 -1
2435 2691 -1
2435 2692 -1
2435 2706 -1
2435 2707 -1
2435 2708 -1
2436 2436 2.6E1
2436 2437 -1
2436 2451 -1
2436 2452 -1
2436 2453 -1
2436 2675 -1
2436 2676 -1
2436 2677 -1
2436 2691 -1
2436 2692 -1
2436 2693 -1
2436 2707 -1
2436 2708 -1
2436 2709 -1
2437 2437 2.6E1
2437 2438 -1
2437 2452 -1
2437 2453 -1
2437 2454 -1
2437 2676 -1
2437 2677 -1
2437 2678 -1
2437 2692 -1
2437 2693 -1
2437 2694 -1
2437 2708 -1
2437 2709 -1
2437 2710 -1
2438 2438 2.6E1
2438 2439 -1
2438 2453 -1
2438 2454 -1
2438 2455 -1
2438 2677 -1
2438 2678 -1
2438 2679 -1
2438 2693 -1
2438 2694 -1
2438 2695 -1
2438 2709 -1
2438 2710 -1
2438 2711 -1
2439 2439 2.6E1
2439 2440 -1
2439 2454 -1
2439 2455 -1
2439 2456 -1
2439 2678 -1
2439 2679 -1
2439 2680 -1
2439 2694 -1
2439 2695 -1
2439 2696 -1
2439 2710 -1
2439 2711 -1
2439 2712 -1
2440 2440 2.6E1
2440 2441 -1
2440 2455 -1
2440 2456 -1
2440 2457 -1
2440 2679 -1
2440 2680 -1
2440 2681 -1
2440 2695 -1
2440 2696 -1
2440 2697 -1
2440 2711 -1
2440 2712 -1
2440 2713 -1
2441 2441 2.6E1
2441 2442 -1
2441 2456 -1
2441 2457 -1
2441 2458 -1
2441 2680 -1
2441 2681 -1
2441 2682 -1
2441 2696 -1
2441 2697 -1
2441 2698 -1
2441 2712 -1
2441 2713 -1
2441 2714 -1
2442 2442 2.6E1
2442 2443 -1
2442 2457 -1
2442 2458 -1
2442 2459 -1
2442 2681 -1
2442 2682 -1
2442 2683 -1
2442 2697 -1
2442 2698 -1
2442 2699 -1
2442 2713 -1
2442 2714 -1
2442 2715 -1
2443 2443 2.6E1
2443 2444 -1
2443 2458 -1
2443 2459 -1
2443 2460 -1
2443 2682 -1
2443 2683 -1
2443 2684 -1
2443 2698 -1
2443 2699 -1
2443 2700 -1
2443 2714 -1
2443 2715 -1
2443 2716 -1
2444 2444 2.6E1
2444 2445 -1
2444 2459 -1
2444 2460 -1
2444 2461 -1
2444 2683 -1
2444 2684 -1
2444 2685 -1
2444 2699 -1
2444 2700 -1
2444 2701 -1
2444 2715 -1
2444 2716 -1
2444 2717 -1
2445 2445 2.6E1
2445 2446 -1
2445 2460 -1
2445 2461 -1
2445 2462 -1
2445 2684 -1
2445 2685 -1
2445 2686 -1
2445 2700 -1
2445 2701 -1
2445 2702 -1
2445 2716 -1
2445 2717 -1
2445 2718 -1
2446 2446 2.6E1
2446 2447 -1
2446 2461 -1
2446 2462 -1
2446 2463 -1
2446 2685 -1
2446 2686 -1
2446 2687 -1
2446 2701 -1
2446 2702 -1
2446 2703 -1
2446 2717 -1
2446 2718 -1
2446 2719 -1
2447 2447 2.6E1
2447 2448 -1
2447 2462 -1
2447 2463 -1
2447 2464 -1
2447 2686 -1
2447 2687 -1
2447 2688 -1
2447 2702 -1
2447 2703 -1
2447 2704 -1
2447 2718 -1
2447 2719 -1
2447 2720 -1
2448 2448 2.6E1
2448 2463 -1
2448 2464 -1
2448 2687 -1
2448 2688 -1
2448 2703 -1
2448 2704 -1
2448 2719 -1
2448 2720 -1
2449 2449 2.6E1
2449 2450 -1
2449 2465 -1
2449 2466 -1
2449 2689 -1
2449 2690 -1
2449 2705 -1
2449 2706 -1
2449 2721 -1
2449 2722 -1
2450 2450 2.6E1
2450 2451 -1
2450 2465 -1
2450 2466 -1
2450 2467 -1
2450 2689 -1
2450 2690 -1
2450 2691 -1
2450 2705 -1
2450 2706 -1
2450 2707 -1
2450 2721 -1
2450 2722 -1
2450 2723 -1
2451 2451 2.6E1
2451 2452 -1
2451 2466 -1
2451 2467 -1
2451 2468 -1
2451 2690 -1
2451 2691 -1
2451 2692 -1
2451 2706 -1
2451 2707 -1
2451 2708 -1
2451 2722 -1
2451 2723 -1
2451 2724 -1
2452 2452 2.6E1
2452 2453 -1
2452 2467 -1
2452 2468 -1
2452 2469 -1
2452 2691 -1
2452 2692 -1
2452 2693 -1
2452 2707 -1
2452 2708 -1
2452 2709 -1
2452 2723 -1
2452 2724 -1
2452 2725 -1
2453 2453 2.6E1
2453 2454 -1
2453 2468 -1
2453 2469 -1
2453 2470 -1
2453 2692 -1
2453 2693 -1
2453 2694 -1
2453 2708 -1
2453 2709 -1
2453 2710 -1
2453 2724 -1
2453 2725 -1
2453 2726 -1
2454 2454 2.6E1
2454 2455 -1
2454 2469 -1
2454 2470 -1
2454 2471 -1
2454 2693 -1
2454 2694 -1
2454 2695 -1
2454 2709 -1
2454 2710 -1
2454 2711 -1
2454 2725 -1
2454 2726 -1
2454 2727 -1
2455 2455 2.6E1
2455 2456 -1
2455 2470 -1
2455 2471 -1
2455 2472 -1
2455 2694 -1
2455 2695 -1
2455 2696 -1
2455 2710 -1
2455 2711 -1
2455 2712 -1
2455 2726 -1
2455 2727 -1
2455 2728 -1
2456 2456 2.6E1
2456 2457 -1
2456 2471 -1
2456 2472 -1
2456 2473 -1
2456 2695 -1
2456 2696 -1
2456 2697 -1
2456 2711 -1
2456 2712 -1
2456 2713 -1
2456 2727 -1
2456 2728 -1
2456 2729 -1
2457 2457 2.6E1
2457 2458 -1
2457 2472 -1
2457 2473 -1
2457 2474 -1
2457 2696 -1
2457 2697 -1
2457 2698 -1
2457 2712 -1
2457 2713 -1
2457 2714 -1
2457 2728 -1
2457 2729 -1
2457 2730 -1
2458 2458 2.6E1
2458 2459 -1
2458 2473 -1
2458 2474 -1
2458 2475 -1
2458 2697 -1
2458 2698 -1
2458 2699 -1
2458 2713 -1
2458 2714 -1
2458 2715 -1
2458 2729 -1
2458 2730 -1
2458 2731 -1
2459 2459 2.6E1
2459 2460 -1
2459 2474 -1
2459 2475 -1
2459 2476 -1
2459 2698 -1
2459 2699 -1
2459 2700 -1
2459 2714 -1
2459 2715 -1
2459 2716 -1
2459 2730 -1
2459 2731 -1
2459 2732 -1
2460 2460 2.6E1
2460 2461 -1
2460 2475 -1
2460 2476 -1
2460 2477 -1
2460 2699 -1
2460 2700 -1
2460 2701 -1
2460 2715 -1
2460 2716 -1
2460 2717 -1
2460 2731 -1
2460 2732 -1
2460 2733 -1
2461 2461 2.6E1
2461 2462 -1
2461 2476 -1
2461 2477 -1
2461 2478 -1
2461 2700 -1
2461 2701 -1
2461 2702 -1
2461 2716 -1
2461 2717 -1
2461 2718 -1
2461 2732 -1
2461 2733 -1
2461 2734 -1
2462 2462 2.6E1
2462 2463 -1
2462 2477 -1
2462 2478 -1
2462 2479 -1
2462 2701 -1
2462 2702 -1
2462 2703 -1
2462 2717 -1
2462 2718 -1
2462 2719 -1
2462 2733 -1
2462 2734 -1
2462 2735 -1
2463 2463 2.6E1
2463 2464 -1
2463 2478 -1
2463 2479 -1
2463 2480 -1
2463 2702 -1
2463 2703 -1
2463 2704 -1
2463 2718 -1
2463 2719 -1
2463 2720 -1
2463 2734 -1
2463 2735 -1
2463 2736 -1
2464 2464 2.6E1
2464 2479 -1
2464 2480 -1
2464 2703 -1
2464 2704 -1
2464 2719 -1
2464 2720 -1
2464 2735 -1
2464 2736 -1
2465 2465 2.6E1
2465 2466 -1
2465 2481 -1
2465 2482 -1
2465 2705 -1
2465 2706 -1
2465 2721 -1
2465 2722 -1
2465 2737 -1
2465 2738 -1
2466 2466 2.6E1
2466 2467 -1
2466 2481 -1
2466 2482 -1
2466 2483 -1
2466 2705 -1
2466 2706 -1
2466 2707 -1
2466 2721 -1
2466 2722 -1
2466 2723 -1
2466 2737 -1
2466 2738 -1
2466 2739 -1
2467 2467 2.6E1
2467 2468 -1
2467 2482 -1
2467 2483 -1
2467 2484 -1
2467 2706 -1
2467 2707 -1
2467 2708 -1
2467 2722 -1
2467 2723 -1
2467 2724 -1
2467 2738 -1
2467 2739 -1
2467 2740 -1
2468 2468 2.6E1
2468 2469 -1
2468 2483 -1
2468 2484 -1
2468 2485 -1
2468 2707 -1
2468 2708 -1
2468 2709 -1
2468 2723 -1
2468 2724 -1
2468 2725 -1
2468 2739 -1
2468 2740 -1
2468 2741 -1
2469 2469 2.6E1
2469 2470 -1
2469 2484 -1
2469 2485 -1
2469 2486 -1
2469 2708 -1
2469 2709 -1
2469 2710 -1
2469 2724 -1
2469 2725 -1
2469 2726 -1
2469 2740 -1
2469 2741 -1
2469 2742 -1
2470 2470 2.6E1
2470 2471 -1
2470 2485 -1
2470 2486 -1
2470 2487 -1
2470 2709 -1
2470 2710 -1
2470 2711 -1
2470 2725 -1
2470 2726 -1
2470 2727 -1
2470 2741 -1
2470 2742 -1
2470 2743 -1
2471 2471 2.6E1
2471 2472 -1
2471 2486 -1
2471 2487 -1
2471 2488 -1
2471 2710 -1
2471 2711 -1
2471 2712 -1
2471 2726 -1
2471 2727 -1
2471 2728 -1
2471 2742 -1
2471 2743 -1
2471 2744 -1
2472 2472 2.6E1
2472 2473 -1
2472 2487 -1
2472 2488 -1
2472 2489 -1
2472 2711 -1
2472 2712 -1
2472 2713 -1
2472 2727 -1
2472 2728 -1
2472 2729 -1
2472 2743 -1
2472 2744 -1
2472 2745 -1
2473 2473 2.6E1
2473 2474 -1
2473 2488 -1
2473 2489 -1
2473 2490 -1
2473 2712 -1
2473 2713 -1
2473 2714 -1
2473 2728 -1
2473 2729 -1
2473 2730 -1
2473 2744 -1
2473 2745 -1
2473 2746 -1
2474 2474 2.6E1
2474 2475 -1
2474 2489 -1
2474 2490 -1
2474 2491 -1
2474 2713 -1
2474 2714 -1
2474 2715 -1
2474 2729 -1
2474 2730 -1
2474 2731 -1
2474 2745 -1
2474 2746 -1
2474 2747 -1
2475 2475 2.6E1
2475 2476 -1
2475 2490 -1
2475 2491 -1
2475 2492 -1
2475 2714 -1
2475 2715 -1
2475 2716 -1
2475 2730 -1
2475 2731 -1
2475 2732 -1
2475 2746 -1
2475 2747 -1
2475 2748 -1
2476 2476 2.6E1
2476 2477 -1
2476 2491 -1
2476 2492 -1
2476 2493 -1
2476 2715 -1
2476 2716 -1
2476 2717 -1
2476 2731 -1
2476 2732 -1
2476 2733 -1
2476 2747 -1
2476 2748 -1
2476 2749 -1
2477 2477 2.6E1
2477 2478 -1
2477 2492 -1
2477 2493 -1
2477 2494 -1
2477 2716 -1
2477 2717 -1
2477 2718 -1
2477 2732 -1
2477 2733 -1
2477 2734 -1
2477 2748 -1
2477 2749 -1
2477 2750 -1
2478 2478 2.6E1
2478 2479 -1
2478 2493 -1
2478 2494 -1
2478 2495 -1
2478 2717 -1
2478 2718 -1
2478 2719 -1
2478 2733 -1
2478 2734 -1
2478 2735 -1
2478 2749 -1
2478 2750 -1
2478 2751 -1
2479 2479 2.6E1
2479 2480 -1
2479 2494 -1
2479 2495 -1
2479 2496 -1
2479 2718 -1
2479 2719 -1
2479 2720 -1
2479 2734 -1
2479 2735 -1
2479 2736 -1
2479 2750 -1
2479 2751 -1
2479 2752 -1
2480 2480 2.6E1
2480 2495 -1
2480 2496 -1
2480 2719 -1
2480 2720 -1
2480 2735 -1
2480 2736 -1
2480 2751 -1
2480 2752 -1
2481 2481 2.6E1
2481 2482 -1
2481 2497 -1
2481 2498 -1
2481 2721 -1
2481 2722 -1
2481 2737 -1
2481 2738 -1
2481 2753 -1
2481 2754 -1
2482 2482 2.6E1
2482 2483 -1
2482 2497 -1
2482 2498 -1
2482 2499 -1
2482 2721 -1
2482 2722 -1
2482 2723 -1
2482 2737 -1
2482 2738 -1
2482 2739 -1
2482 2753 -1
2482 2754 -1
2482 2755 -1
2483 2483 2.6E1
2483 2484 -1
2483 2498 -1
2483 2499 -1
2483 2500 -1
2483 2722 -1
2483 2723 -1
2483 2724 -1
2483 2738 -1
2483 2739 -1
2483 2740 -1
2483 2754 -1
2483 2755 -1
2483 2756 -1
2484 2484 2.6E1
2484 2485 -1
2484 2499 -1
2484 2500 -1
2484 2501 -1
2484 2723 -1
2484 2724 -1
2484 2725 -1
2484 2739 -1
2484 2740 -1
2484 2741 -1
2484 2755 -1
2484 2756 -1
2484 2757 -1
2485 2485 2.6E1
2485 2486 -1
2485 2500 -1
2485 2501 -1
2485 2502 -1
2485 2724 -1
2485 2725 -1
2485 2726 -1
2485 2740 -1
2485 2741 -1
2485 2742 -1
2485 2756 -1
2485 2757 -1
2485 2758 -1
2486 2486 2.6E1
2486 2487 -1
2486 2501 -1
2486 2502 -1
2486 2503 -1
2486 2725 -1
2486 2726 -1
2486 2727 -1
2486 2741 -1
2486 2742 -1
2486 2743 -1
2486 2757 -1
2486 2758 -1
2486 2759 -1
2487 2487 2.6E1
2487 2488 -1
2487 2502 -1
2487 2503 -1
2487 2504 -1
2487 2726 -1
2487 2727 -1
2487 2728 -1
2487 2742 -1
2487 2743 -1
2487 2744 -1
2487 2758 -1
2487 2759 -1
2487 2760 -1
2488 2488 2.6E1
2488 2489 -1
2488 2503 -1
2488 2504 -1
2488 2505 -1
2488 2727 -1
2488 2728 -1
2488 2729 -1
2488 2743 -1
2488 2744 -1
2488 2745 -1
2488 2759 -1
2488 2760 -1
2488 2761 -1
2489 2489 2.6E1
2489 2490 -1
2489 2504 -1
2489 2505 -1
2489 2506 -1
2489 2728 -1
2489 2729 -1
2489 2730 -1
2489 2744 -1
2489 2745 -1
2489 2746 -1
2489 2760 -1
2489 2761 -1
2489 2762 -1
2490 2490 2.6E1
2490 2491 -1
2490 2505 -1
2490 2506 -1
2490 2507 -1
2490 2729 -1
2490 2730 -1
2490 2731 -1
2490 2745 -1
2490 2746 -1
2490 2747 -1
2490 2761 -1
2490 2762 -1
2490 2763 -1
2491 2491 2.6E1
2491 2492 -1
2491 2506 -1
2491 2507 -1
2491 2508 -1
2491 2730 -1
2491 2731 -1
2491 2732 -1
2491 2746 -1
2491 2747 -1
2491 2748 -1
2491 2762 -1
2491 2763 -1
2491 2764 -1
2492 2492 2.6E1
2492 2493 -1
2492 2507 -1
2492 2508 -1
2492 2509 -1
2492 2731 -1
2492 2732 -1
2492 2733 -1
2492 2747 -1
2492 2748 -1
2492 2749 -1
2492 2763 -1
2492 2764 -1
2492 2765 -1
2493 2493 2.6E1
2493 2494 -1
2493 2508 -1
2493 2509 -1
2493 2510 -1
2493 2732 -1
2493 2733 -1
2493 2734 -1
2493 2748 -1
2493 2749 -1
2493 2750 -1
2493 2764 -1
2493 2765 -1
2493 2766 -1
2494 2494 2.6E1
2494 2495 -1
2494 2509 -1
2494 2510 -1
2494 2511 -1
2494 2733 -1
2494 2734 -1
2494 2735 -1
2494 2749 -1
2494 2750 -1
2494 2751 -1
2494 2765 -1
2494 2766 -1
2494 2767 -1
2495 2495 2.6E1
2495 2496 -1
2495 2510 -1
2495 2511 -1
2495 2512 -1
2495 2734 -1
2495 2735 -1
2495 2736 -1
2495 2750 -1
2495 2751 -1
2495 2752 -1
2495 2766 -1
2495 2767 -1
2495 2768 -1
2496 2496 2.6E1
2496 2511 -1
2496 2512 -1
2496 2735 -1
2496 2736 -1
2496 2751 -1
2496 2752 -1
2496 2767 -1
2496 2768 -1
2497 2497 2.6E1
2497 2498 -1
2497 2513 -1
2497 2514 -1
2497 2737 -1
2497 2738 -1
2497 2753 -1
2497 2754 -1
2497 2769 -1
2497 2770 -1
2498 2498 2.6E1
2498 2499 -1
2498 2513 -1
2498 2514 -1
2498 2515 -1
2498 2737 -1
2498 2738 -1
2498 2739 -1
2498 2753 -1
2498 2754 -1
2498 2755 -1
2498 2769 -1
2498 2770 -1
2498 2771 -1
2499 2499 2.6E1
2499 2500 -1
2499 2514 -1
2499 2515 -1
2499 2516 -1
2499 2738 -1
2499 2739 -1
2499 2740 -1
2499 2754 -1
2499 2755 -1
2499 2756 -1
2499 2770 -1
2499 2771 -1
2499 2772 -1
2500 2500 2.6E1
2500 2501 -1
2500 2515 -1
2500 2516 -1
2500 2517 -1
2500 2739 -1
2500 2740 -1
2500 2741 -1
2500 2755 -1
2500 2756 -1
2500 2757 -1
2500 2771 -1
2500 2772 -1
2500 2773 -1
2501 2501 2.6E1
2501 2502 -1
2501 2516 -1
2501 2517 -1
2501 2518 -1
2501 2740 -1
2501 2741 -1
2501 2742 -1
2501 2756 -1
2501 2757 -1
2501 2758 -1
2501 2772 -1
2501 2773 -1
2501 2774 -1
2502 2502 2.6E1
2502 2503 -1
2502 2517 -1
2502 2518 -1
2502 2519 -1
2502 2741 -1
2502 2742 -1
2502 2743 -1
2502 2757 -1
2502 2758 -1
2502 2759 -1
2502 2773 -1
2502 2774 -1
2502 2775 -1
2503 2503 2.6E1
2503 2504 -1
2503 2518 -1
2503 2519 -1
2503 2520 -1
2503 2742 -1
2503 2743 -1
2503 2744 -1
2503 2758 -1
2503 2759 -1
2503 2760 -1
2503 2774 -1
2503 2775 -1
2503 2776 -1
2504 2504 2.6E1
2504 2505 -1
2504 2519 -1
2504 2520 -1
2504 2521 -1
2504 2743 -1
2504 2744 -1
2504 2745 -1
2504 2759 -1
2504 2760 -1
2504 2761 -1
2504 2775 -1
2504 2776 -1
2504 2777 -1
2505 2505 2.6E1
2505 2506 -1
2505 2520 -1
2505 2521 -1
2505 2522 -1
2505 2744 -1
2505 2745 -1
2505 2746 -1
2505 2760 -1
2505 2761 -1
2505 2762 -1
2505 2776 -1
2505 2777 -1
2505 2778 -1
2506 2506 2.6E1
2506 2507 -1
2506 2521 -1
2506 2522 -1
2506 2523 -1
2506 2745 -1
2506 2746 -1
2506 2747 -1
2506 2761 -1
2506 2762 -1
2506 2763 -1
2506 2777 -1
2506 2778 -1
2506 2779 -1
2507 2507 2.6E1
2507 2508 -1
2507 2522 -1
2507 2523 -1
2507 2524 -1
2507 2746 -1
2507 2747 -1
2507 2748 -1
2507 2762 -1
2507 2763 -1
2507 2764 -1
2507 2778 -1
2507 2779 -1
2507 2780 -1
2508 2508 2.6E1
2508 2509 -1
2508 2523 -1
2508 2524 -1
2508 2525 -1
2508 2747 -1
2508 2748 -1
2508 2749 -1
2508 2763 -1
2508 2764 -1
2508 2765 -1
2508 2779 -1
2508 2780 -1
2508 2781 -1
2509 2509 2.6E1
2509 2510 -1
2509 2524 -1
2509 2525 -1
2509 2526 -1
2509 2748 -1
2509 2749 -1
2509 2750 -1
2509 2764 -1
2509 2765 -1
2509 2766 -1
2509 2780 -1
2509 2781 -1
2509 2782 -1
2510 2510 2.6E1
2510 2511 -1
2510 2525 -1
2510 2526 -1
2510 2527 -1
2510 2749 -1
2510 2750 -1
2510 2751 -1
2510 2765 -1
2510 2766 -1
2510 2767 -1
2510 2781 -1
2510 2782 -1
2510 2783 -1
2511 2511 2.6E1
2511 2512 -1
2511 2526 -1
2511 2527 -1
2511 2528 -1
2511 2750 -1
2511 2751 -1
2511 2752 -1
2511 2766 -1
2511 2767 -1
2511 2768 -1
2511 2782 -1
2511 2783 -1
2511 2784 -1
2512 2512 2.6E1
2512 2527 -1
2512 2528 -1
2512 2751 -1
2512 2752 -1
2512 2767 -1
2512 2768 -1
2512 2783 -1
2512 2784 -1
2513 2513 2.6E1
2513 2514 -1
2513 2529 -1
2513 2530 -1
2513 2753 -1
2513 2754 -1
2513 2769 -1
2513 2770 -1
2513 2785 -1
2513 2786 -1
2514 2514 2.6E1
2514 2515 -1
2514 2529 -1
2514 2530 -1
2514 2531 -1
2514 2753 -1
2514 2754 -1
2514 2755 -1
2514 2769 -1
2514 2770 -1
2514 2771 -1
2514 2785 -1
2514 2786 -1
2514 2787 -1
2515 2515 2.6E1
2515 2516 -1
2515 2530 -1
2515 2531 -1
2515 2532 -1
2515 2754 -1
2515 2755 -1
2515 2756 -1
2515 2770 -1
2515 2771 -1
2515 2772 -1
2515 2786 -1
2515 2787 -1
2515 2788 -1
2516 2516 2.6E1
2516 2517 -1
2516 2531 -1
2516 2532 -1
2516 2533 -1
2516 2755 -1
2516 2756 -1
2516 2757 -1
2516 2771 -1
2516 2772 -1
2516 2773 -1
2516 2787 -1
2516 2788 -1
2516 2789 -1
2517 2517 2.6E1
2517 2518 -1
2517 2532 -1
2517 2533 -1
2517 2534 -1
2517 2756 -1
2517 2757 -1
2517 2758 -1
2517 2772 -1
2517 2773 -1
2517 2774 -1
2517 2788 -1
2517 2789 -1
2517 2790 -1
2518 2518 2.6E1
2518 2519 -1
2518 2533 -1
2518 2534 -1
2518 2535 -1
2518 2757 -1
2518 2758 -1
2518 2759 -1
2518 2773 -1
2518 2774 -1
2518 2775 -1
2518 2789 -1
2518 2790 -1
2518 2791 -1
2519 2519 2.6E1
2519 2520 -1
2519 2534 -1
2519 2535 -1
2519 2536 -1
2519 2758 -1
2519 2759 -1
2519 2760 -1
2519 2774 -1
2519 2775 -1
2519 2776 -1
2519 2790 -1
2519 2791 -1
2519 2792 -1
2520 2520 2.6E1
2520 2521 -1
2520 2535 -1
2520 2536 -1
2520 2537 -1
2520 2759 -1
2520 2760 -1
2520 2761 -1
2520 2775 -1
2520 2776 -1
2520 2777 -1
2520 2791 -1
2520 2792 -1
2520 2793 -1
2521 2521 2.6E1
2521 2522 -1
2521 2536 -1
2521 2537 -1
2521 2538 -1
2521 2760 -1
2521 2761 -1
2521 2762 -1
2521 2776 -1
2521 2777 -1
2521 2778 -1
2521 2792 -1
2521 2793 -1
2521 2794 -1
2522 2522 2.6E1
2522 2523 -1
2522 2537 -1
2522 2538 -1
2522 2539 -1
2522 2761 -1
2522 2762 -1
2522 2763 -1
2522 2777 -1
2522 2778 -1
2522 2779 -1
2522 2793 -1
2522 2794 -1
2522 2795 -1
2523 2523 2.6E1
2523 2524 -1
2523 2538 -1
2523 2539 -1
2523 2540 -1
2523 2762 -1
2523 2763 -1
2523 2764 -1
2523 2778 -1
2523 2779 -1
2523 2780 -1
2523 2794 -1
2523 2795 -1
2523 2796 -1
2524 2524 2.6E1
2524 2525 -1
2524 2539 -1
2524 2540 -1
2524 2541 -1
2524 2763 -1
2524 2764 -1
2524 2765 -1
2524 2779 -1
2524 2780 -1
2524 2781 -1
2524 2795 -1
2524 2796 -1
2524 2797 -1
2525 2525 2.6E1
2525 2526 -1
2525 2540 -1
2525 2541 -1
2525 2542 -1
2525 2764 -1
2525 2765 -1
2525 2766 -1
2525 2780 -1
2525 2781 -1
2525 2782 -1
2525 2796 -1
2525 2797 -1
2525 2798 -1
2526 2526 2.6E1
2526 2527 -1
2526 2541 -1
2526 2542 -1
2526 2543 -1
2526 2765 -1
2526 2766 -1
2526 2767 -1
2526 2781 -1
2526 2782 -1
2526 2783 -1
2526 2797 -1
2526 2798 -1
2526 2799 -1
2527 2527 2.6E1
2527 2528 -1
2527 2542 -1
2527 2543 -1
2527 2544 -1
2527 2766 -1
2527 2767 -1
2527 2768 -1
2527 2782 -1
2527 2783 -1
2527 2784 -1
2527 2798 -1
2527 2799 -1
2527 2800 -1
2528 2528 2.6E1
2528 2543 -1
2528 2544 -1
2528 2767 -1
2528 2768 -1
2528 2783 -1
2528 2784 -1
2528 2799 -1
2528 2800 -1
2529 2529 2.6E1
2529 2530 -1
2529 2545 -1
2529 2546 -1
2529 2769 -1
2529 2770 -1
2529 2785 -1
2529 2786 -1
2529 2801 -1
2529 2802 -1
2530 2530 2.6E1
2530 2531 -1
2530 2545 -1
2530 2546 -1
2530 2547 -1
2530 2769 -1
2530 2770 -1
2530 2771 -1
2530 2785 -1
2530 2786 -1
2530 2787 -1
2530 2801 -1
2530 2802 -1
2530 2803 -1
2531 2531 2.6E1
2531 2532 -1
2531 2546 -1
2531 2547 -1
2531 2548 -1
2531 2770 -1
2531 2771 -1
2531 2772 -1
2531 2786 -1
2531 2787 -1
2531 2788 -1
2531 2802 -1
2531 2803 -1
2531 2804 -1
2532 2532 2.6E1
2532 2533 -1
2532 2547 -1
2532 2548 -1
2532 2549 -1
2532 2771 -1
2532 2772 -1
2532 2773 -1
2532 2787 -1
2532 2788 -1
2532 2789 -1
2532 2803 -1
2532 2804 -1
2532 2805 -1
2533 2533 2.6E1
2533 2534 -1
2533 2548 -1
2533 2549 -1
2533 2550 -1
2533 2772 -1
2533 2773 -1
2533 2774 -1
2533 2788 -1
2533 2789 -1
2533 2790 -1
2533 2804 -1
2533 2805 -1
2533 2806 -1
2534 2534 2.6E1
2534 2535 -1
2534 2549 -1
2534 2550 -1
2534 2551 -1
2534 2773 -1
2534 2774 -1
2534 2775 -1
2534 2789 -1
2534 2790 -1
2534 2791 -1
2534 2805 -1
2534 2806 -1
2534 2807 -1
2535 2535 2.6E1
2535 2536 -1
2535 2550 -1
2535 2551 -1
2535 2552 -1
2535 2774 -1
2535 2775 -1
2535 2776 -1
2535 2790 -1
2535 2791 -1
2535 2792 -1
2535 2806 -1
2535 2807 -1
2535 2808 -1
2536 2536 2.6E1
2536 2537 -1
2536 2551 -1
2536 2552 -1
2536 2553 -1
2536 2775 -1
2536 2776 -1
2536 2777 -1
2536 2791 -1
2536 2792 -1
2536 2793 -1
2536 2807 -1
2536 2808 -1
2536 2809 -1
2537 2537 2.6E1
2537 2538 -1
2537 2552 -1
2537 2553 -1
2537 2554 -1
2537 2776 -1
2537 2777 -1
2537 2778 -1
2537 2792 -1
2537 2793 -1
2537 2794 -1
2537 2808 -1
2537 2809 -1
2537 2810 -1
2538 2538 2.6E1
2538 2539 -1
2538 2553 -1
2538 2554 -1
2538 2555 -1
2538 2777 -1
2538 2778 -1
2538 2779 -1
2538 2793 -1
2538 2794 -1
2538 2795 -1
2538 2809 -1
2538 2810 -1
2538 2811 -1
2539 2539 2.6E1
2539 2540 -1
2539 2554 -1
2539 2555 -1
2539 2556 -1
2539 2778 -1
2539 2779 -1
2539 2780 -1
2539 2794 -1
2539 2795 -1
2539 2796 -1
2539 2810 -1
2539 2811 -1
2539 2812 -1
2540 2540 2.6E1
2540 2541 -1
2540 2555 -1
2540 2556 -1
2540 2557 -1
2540 2779 -1
2540 2780 -1
2540 2781 -1
2540 2795 -1
2540 2796 -1
2540 2797 -1
2540 2811 -1
2540 2812 -1
2540 2813 -1
2541 2541 2.6E1
2541 2542 -1
2541 2556 -1
2541 2557 -1
2541 2558 -1
2541 2780 -1
2541 2781 -1
2541 2782 -1
2541 2796 -1
2541 2797 -1
2541 2798 -1
2541 2812 -1
2541 2813 -1
2541 2814 -1
2542 2542 2.6E1
2542 2543 -1
2542 2557 -1
2542 2558 -1
2542 2559 -1
2542 2781 -1
2542 2782 -1
2542 2783 -1
2542 2797 -1
2542 2798 -1
2542 2799 -1
2542 2813 -1
2542 2814 -1
2542 2815 -1
2543 2543 2.6E1
2543 2544 -1
2543 2558 -1
2543 2559 -1
2543 2560 -1
2543 2782 -1
2543 2783 -1
2543 2784 -1
2543 2798 -1
2543 2799 -1
2543 2800 -1
2543 2814 -1
2543 2815 -1
2543 2816 -1
2544 2544 2.6E1
2544 2559 -1
2544 2560 -1
2544 2783 -1
2544 2784 -1
2544 2799 -1
2544 2800 -1
2544 2815 -1
2544 2816 -1
2545 2545 2.6E1
2545 2546 -1
2545 2785 -1
2545 2786 -1
2545 2801 -1
2545 2802 -1
2546 2546 2.6E1
2546 2547 -1
2546 2785 -1
2546 2786 -1
2546 2787 -1
2546 2801 -1
2546 2802 -1
2546 2803 -1
2547 2547 2.6E1
2547 2548 -1
2547 2786 -1
2547 2787 -1
2547 2788 -1
2547 2802 -1
2547 2803 -1
2547 2804 -1
2548 2548 2.6E1
2548 2549 -1
2548 2787 -1
2548 2788 -1
2548 2789 -1
2548 2803 -1
2548 2804 -1
2548 2805 -1
2549 2549 2.6E1
2549 2550 -1
2549 2788 -1
2549 2789 -1
2549 2790 -1
2549 2804 -1
2549 2805 -1
2549 2806 -1
2550 2550 2.6E1
2550 2551 -1
2550 2789 -1
2550 2790 -1
2550 2791 -1
2550 2805 -1
2550 2806 -1
2550 2807 -1
2551 2551 2.6E1
2551 2552 -1
2551 2790 -1
2551 2791 -1
2551 2792 -1
2551 2806 -1
2551 2807 -1
2551 2808 -1
2552 2552 2.6E1
2552 2553 -1
2552 2791 -1
2552 2792 -1
2552 2793 -1
2552 2807 -1
2552 2808 -1
2552 2809 -1
2553 2553 2.6E1
2553 2554 -1
2553 2792 -1
2553 2793 -1
2553 2794 -1
2553 2808 -1
2553 2809 -1
2553 2810 -1
2554 2554 2.6E1
2554 2555 -1
2554 2793 -1
2554 2794 -1
2554 2795 -1
2554 2809 -1
2554 2810 -1
2554 2811 -1
2555 2555 2.6E1
2555 2556 -1
2555 2794 -1
2555 2795 -1
2555 2796 -1
2555 2810 -1
2555 2811 -1
2555 2812 -1
2556 2556 2.6E1
2556 2557 -1
2556 2795 -1
2556 2796 -1
2556 2797 -1
2556 2811 -1
2556 2812 -1
2556 2813 -1
2557 2557 2.6E1
2557 2558 -1
2557 2796 -1
2557 2797 -1
2557 2798 -1
2557 2812 -1
2557 2813 -1
2557 2814 -1
2558 2558 2.6E1
2558 2559 -1
2558 2797 -1
2558 2798 -1
2558 2799 -1
2558 2813 -1
2558 2814 -1
2558 2815 -1
2559 2559 2.6E1
2559 2560 -1
2559 2798 -1
2559 2799 -1
2559 2800 -1
2559 2814 -1
2559 2815 -1
2559 2816 -1
2560 2560 2.6E1
2560 2799 -1
2560 2800 -1
2560 2815 -1
2560 2816 -1
2561 2561 2.6E1
2561 2562 -1
2561 2577 -1
2561 2578 -1
2561 2817 -1
2561 2818 -1
2561 2833 -1
2561 2834 -1
2562 2562 2.6E1
2562 2563 -1
2562 2577 -1
2562 2578 -1
2562 2579 -1
2562 2817 -1
2562 2818 -1
2562 2819 -1
2562 2833 -1
2562 2834 -1
2562 2835 -1
2563 2563 2.6E1
2563 2564 -1
2563 2578 -1
2563 2579 -1
2563 2580 -1
2563 2818 -1
2563 2819 -1
2563 2820 -1
2563 2834 -1
2563 2835 -1
2563 2836 -1
2564 2564 2.6E1
2564 2565 -1
2564 2579 -1
2564 2580 -1
2564 2581 -1
2564 2819 -1
2564 2820 -1
2564 2821 -1
2564 2835 -1
2564 2836 -1
2564 2837 -1
2565 2565 2.6E1
2565 2566 -1
2565 2580 -1
2565 2581 -1
2565 2582 -1
2565 2820 -1
2565 2821 -1
2565 2822 -1
2565 2836 -1
2565 2837 -1
2565 2838 -1
2566 2566 2.6E1
2566 2567 -1
2566 2581 -1
2566 2582 -1
2566 2583 -1
2566 2821 -1
2566 2822 -1
2566 2823 -1
2566 2837 -1
2566 2838 -1
2566 2839 -1
2567 2567 2.6E1
2567 2568 -1
2567 2582 -1
2567 2583 -1
2567 2584 -1
2567 2822 -1
2567 2823 -1
2567 2824 -1
2567 2838 -1
2567 2839 -1
2567 2840 -1
2568 2568 2.6E1
2568 2569 -1
2568 2583 -1
2568 2584 -1
2568 2585 -1
2568 2823 -1
2568 2824 -1
2568 2825 -1
2568 2839 -1
2568 2840 -1
2568 2841 -1
2569 2569 2.6E1
2569 2570 -1
2569 2584 -1
2569 2585 -1
2569 2586 -1
2569 2824 -1
2569 2825 -1
2569 2826 -1
2569 2840 -1
2569 2841 -1
2569 2842 -1
2570 2570 2.6E1
2570 2571 -1
2570 2585 -1
2570 2586 -1
2570 2587 -1
2570 2825 -1
2570 2826 -1
2570 2827 -1
2570 2841 -1
2570 2842 -1
2570 2843 -1
2571 2571 2.6E1
2571 2572 -1
2571 2586 -1
2571 2587 -1
2571 2588 -1
2571 2826 -1
2571 2827 -1
2571 2828 -1
2571 2842 -1
2571 2843 -1
2571 2844 -1
2572 2572 2.6E1
2572 2573 -1
2572 2587 -1
2572 2588 -1
2572 2589 -1
2572 2827 -1
2572 2828 -1
2572 2829 -1
2572 2843 -1
2572 2844 -1
2572 2845 -1
2573 2573 2.6E1
2573 2574 -1
2573 2588 -1
2573 2589 -1
2573 2590 -1
2573 2828 -1
2573 2829 -1
2573 2830 -1
2573 2844 -1
2573 2845 -1
2573 2846 -1
2574 2574 2.6E1
2574 2575 -1
2574 2589 -1
2574 2590 -1
2574 2591 -1
2574 2829 -1
2574 2830 -1
2574 2831 -1
2574 2845 -1
2574 2846 -1
2574 2847 -1
2575 2575 2.6E1
2575 2576 -1
2575 2590 -1
2575 2591 -1
2575 2592 -1
2575 2830 -1
2575 2831 -1
2575 2832 -1
2575 2846 -1
2575 2847 -1
2575 2848 -1
2576 2576 2.6E1
2576 2591 -1
2576 2592 -1
2576 2831 -1
2576 2832 -1
2576 2847 -1
2576 2848 -1
2577 2577 2.6E1
2577 2578 -1
2577 2593 -1
2577 2594 -1
2577 2817 -1
2577 2818 -1
2577 2833 -1
2577 2834 -1
2577 2849 -1
2577 2850 -1
2578 2578 2.6E1
2578 2579 -1
2578 2593 -1
2578 2594 -1
2578 2595 -1
2578 2817 -1
2578 2818 -1
2578 2819 -1
2578 2833 -1
2578 2834 -1
2578 2835 -1
2578 2849 -1
2578 2850 -1
2578 2851 -1
2579 2579 2.6E1
2579 2580 -1
2579 2594 -1
2579 2595 -1
2579 2596 -1
2579 2818 -1
2579 2819 -1
2579 2820 -1
2579 2834 -1
2579 2835 -1
2579 2836 -1
2579 2850 -1
2579 2851 -1
2579 2852 -1
2580 2580 2.6E1
2580 2581 -1
2580 2595 -1
2580 2596 -1
2580 2597 -1
2580 2819 -1
2580 2820 -1
2580 2821 -1
2580 2835 -1
2580 2836 -1
2580 2837 -1
2580 2851 -1
2580 2852 -1
2580 2853 -1
2581 2581 2.6E1
2581 2582 -1
2581 2596 -1
2581 2597 -1
2581 2598 -1
2581 2820 -1
2581 2821 -1
2581 2822 -1
2581 2836 -1
2581 2837 -1
2581 2838 -1
2581 2852 -1
2581 2853 -1
2581 2854 -1
2582 2582 2.6E1
2582 2583 -1
2582 2597 -1
2582 2598 -1
2582 2599 -1
2582 2821 -1
2582 2822 -1
2582 2823 -1
2582 2837 -1
2582 2838 -1
2582 2839 -1
2582 2853 -1
2582 2854 -1
2582 2855 -1
2583 2583 2.6E1
2583 2584 -1
2583 2598 -1
2583 2599 -1
2583 2600 -1
2583 2822 -1
2583 2823 -1
2583 2824 -1
2583 2838 -1
2583 2839 -1
2583 2840 -1
2583 2854 -1
2583 2855 -1
2583 2856 -1
2584 2584 2.6E1
2584 2585 -1
2584 2599 -1
2584 2600 -1
2584 2601 -1
2584 2823 -1
2584 2824 -1
2584 2825 -1
2584 2839 -1
2584 2840 -1
2584 2841 -1
2584 2855 -1
2584 2856 -1
2584 2857 -1
2585 2585 2.6E1
2585 2586 -1
2585 2600 -1
2585 2601 -1
2585 2602 -1
2585 2824 -1
2585 2825 -1
2585 2826 -1
2585 2840 -1
2585 2841 -1
2585 2842 -1
2585 2856 -1
2585 2857 -1
2585 2858 -1
2586 2586 2.6E1
2586 2587 -1
2586 2601 -1
2586 2602 -1
2586 2603 -1
2586 2825 -1
2586 2826 -1
2586 2827 -1
2586 2841 -1
2586 2842 -1
2586 2843 -1
2586 2857 -1
2586 2858 -1
2586 2859 -1
2587 2587 2.6E1
2587 2588 -1
2587 2602 -1
2587 2603 -1
2587 2604 -1
2587 2826 -1
2587 2827 -1
2587 2828 -1
2587 2842 -1
2587 2843 -1
2587 2844 -1
2587 2858 -1
2587 2859 -1
2587 2860 -1
2588 2588 2.6E1
2588 2589 -1
2588 2603 -1
2588 2604 -1
2588 2605 -1
2588 2827 -1
2588 2828 -1
2588 2829 -1
2588 2843 -1
2588 2844 -1
2588 2845 -1
2588 2859 -1
2588 2860 -1
2588 2861 -1
2589 2589 2.6E1
2589 2590 -1
2589 2604 -1
2589 2605 -1
2589 2606 -1
2589 2828 -1
2589 2829 -1
2589 2830 -1
2589 2844 -1
2589 2845 -1
2589 2846 -1
2589 2860 -1
2589 2861 -1
2589 2862 -1
2590 2590 2.6E1
2590 2591 -1
2590 2605 -1
2590 2606 -1
2590 2607 -1
2590 2829 -1
2590 2830 -1
2590 2831 -1
2590 2845 -1
2590 2846 -1
2590 2847 -1
2590 2861 -1
2590 2862 -1
2590 2863 -1
2591 2591 2.6E1
2591 2592 -1
2591 2606 -1
2591 2607 -1
2591 2608 -1
2591 2830 -1
2591 2831 -1
2591 2832 -1
2591 2846 -1
2591 2847 -1
2591 2848 -1
2591 2862 -1
2591 2863 -1
2591 2864 -1
2592 2592 2.6E1
2592 2607 -1
2592 2608 -1
2592 2831 -1
2592 2832 -1
2592 2847 -1
2592 2848 -1
2592 2863 -1
2592 2864 -1
2593 2593 2.6E1
2593 2594 -1
2593 2609 -1
2593 2610 -1
2593 2833 -1
2593 2834 -1
2593 2849 -1
2593 2850 -1
2593 2865 -1
2593 2866 -1
2594 2594 2.6E1
2594 2595 -1
2594 2609 -1
2594 2610 -1
2594 2611 -1
2594 2833 -1
2594 2834 -1
2594 2835 -1
2594 2849 -1
2594 2850 -1
2594 2851 -1
2594 2865 -1
2594 2866 -1
2594 2867 -1
2595 2595 2.6E1
2595 2596 -1
2595 2610 -1
2595 2611 -1
2595 2612 -1
2595 2834 -1
2595 2835 -1
2595 2836 -1
2595 2850 -1
2595 2851 -1
2595 2852 -1
2595 2866 -1
2595 2867 -1
2595 2868 -1
2596 2596 2.6E1
2596 2597 -1
2596 2611 -1
2596 2612 -1
2596 2613 -1
2596 2835 -1
2596 2836 -1
2596 2837 -1
2596 2851 -1
2596 2852 -1
2596 2853 -1
2596 2867 -1
2596 2868 -1
2596 2869 -1
2597 2597 2.6E1
2597 2598 -1
2597 2612 -1
2597 2613 -1
2597 2614 -1
2597 2836 -1
2597 2837 -1
2597 2838 -1
2597 2852 -1
2597 2853 -1
2597 2854 -1
2597 2868 -1
2597 2869 -1
2597 2870 -1
2598 2598 2.6E1
2598 2599 -1
2598 2613 -1
2598 2614 -1
2598 2615 -1
2598 2837 -1
2598 2838 -1
2598 2839 -1
2598 2853 -1
2598 2854 -1
2598 2855 -1
2598 2869 -1
2598 2870 -1
2598 2871 -1
2599 2599 2.6E1
2599 2600 -1
2599 2614 -1
2599 2615 -1
2599 2616 -1
2599 2838 -1
2599 2839 -1
2599 2840 -1
2599 2854 -1
2599 2855 -1
2599 2856 -1
2599 2870 -1
2599 2871 -1
2599 2872 -1
2600 2600 2.6E1
2600 2601 -1
2600 2615 -1
2600 2616 -1
2600 2617 -1
2600 2839 -1
2600 2840 -1
2600 2841 -1
2600 2855 -1
2600 2856 -1
2600 2857 -1
2600 2871 -1
2600 2872 -1
2600 2873 -1
2601 2601 2.6E1
2601 2602 -1
2601 2616 -1
2601 2617 -1
2601 2618 -1
2601 2840 -1
2601 2841 -1
2601 2842 -1
2601 2856 -1
2601 2857 -1
2601 2858 -1
2601 2872 -1
2601 2873 -1
2601 2874 -1
2602 2602 2.6E1
2602 2603 -1
2602 2617 -1
2602 2618 -1
2602 2619 -1
2602 2841 -1
2602 2842 -1
2602 2843 -1
2602 2857 -1
2602 2858 -1
2602 2859 -1
2602 2873 -1
2602 2874 -1
2602 2875 -1
2603 2603 2.6E1
2603 2604 -1
2603 2618 -1
2603 2619 -1
2603 2620 -1
2603 2842 -1
2603 2843 -1
2603 2844 -1
2603 2858 -1
2603 2859 -1
2603 2860 -1
2603 2874 -1
2603 2875 -1
2603 2876 -1
2604 2604 2.6E1
2604 2605 -1
2604 2619 -1
2604 2620 -1
2604 2621 -1
2604 2843 -1
2604 2844 -1
2604 2845 -1
2604 2859 -1
2604 2860 -1
2604 2861 -1
2604 2875 -1
2604 2876 -1
2604 2877 -1
2605 2605 2.6E1
2605 2606 -1
2605 2620 -1
2605 2621 -1
2605 2622 -1
2605 2844 -1
2605 2845 -1
2605 2846 -1
2605 2860 -1
2605 2861 -1
2605 2862 -1
2605 2876 -1
2605 2877 -1
2605 2878 -1
2606 2606 2.6E1
2606 2607 -1
2606 2621 -1
2606 2622 -1
2606 2623 -1
2606 2845 -1
2606 2846 -1
2606 2847 -1
2606 2861 -1
2606 2862 -1
2606 2863 -1
2606 2877 -1
2606 2878 -1
2606 2879 -1
2607 2607 2.6E1
2607 2608 -1
2607 2622 -1
2607 2623 -1
2607 2624 -1
2607 2846 -1
2607 2847 -1
2607 2848 -1
2607 2862 -1
2607 2863 -1
2607 2864 -1
2607 2878 -1
2607 2879 -1
2607 2880 -1
2608 2608 2.6E1
2608 2623 -1
2608 2624 -1
2608 2847 -1
2608 2848 -1
2608 2863 -1
2608 2864 -1
2608 2879 -1
2608 2880 -1
2609 2609 2.6E1
2609 2610 -1
2609 2625 -1
2609 2626 -1
2609 2849 -1
2609 2850 -1
2609 2865 -1
2609 2866 -1
2609 2881 -1
2609 2882 -1
2610 2610 2.6E1
2610 2611 -1
2610 2625 -1
2610 2626 -1
2610 2627 -1
2610 2849 -1
2610 2850 -1
2610 2851 -1
2610 2865 -1
2610 2866 -1
2610 2867 -1
2610 2881 -1
2610 2882 -1
2610 2883 -1
2611 2611 2.6E1
2611 2612 -1
2611 2626 -1
2611 2627 -1
2611 2628 -1
2611 2850 -1
2611 2851 -1
2611 2852 -1
2611 2866 -1
2611 2867 -1
2611 2868 -1
2611 2882 -1
2611 2883 -1
2611 2884 -1
2612 2612 2.6E1
2612 2613 -1
2612 2627 -1
2612 2628 -1
2612 2629 -1
2612 2851 -1
2612 2852 -1
2612 2853 -1
2612 2867 -1
2612 2868 -1
2612 2869 -1
2612 2883 -1
2612 2884 -1
2612 2885 -1
2613 2613 2.6E1
2613 2614 -1
2613 2628 -1
2613 2629 -1
2613 2630 -1
2613 2852 -1
2613 2853 -1
2613 2854 -1
2613 2868 -1
2613 2869 -1
2613 2870 -1
2613 2884 -1
2613 2885 -1
2613 2886 -1
2614 2614 2.6E1
2614 2615 -1
2614 2629 -1
2614 2630 -1
2614 2631 -1
2614 2853 -1
2614 2854 -1
2614 2855 -1
2614 2869 -1
2614 2870 -1
2614 2871 -1
2614 2885 -1
2614 2886 -1
2614 2887 -1
2615 2615 2.6E1
2615 2616 -1
2615 2630 -1
2615 2631 -1
2615 2632 -1
2615 2854 -1
2615 2855 -1
2615 2856 -1
2615 2870 -1
2615 2871 -1
2615 2872 -1
2615 2886 -1
2615 2887 -1
2615 2888 -1
2616 2616 2.6E1
2616 2617 -1
2616 2631 -1
2616 2632 -1
2616 2633 -1
2616 2855 -1
2616 2856 -1
2616 2857 -1
2616 2871 -1
2616 2872 -1
2616 2873 -1
2616 2887 -1
2616 2888 -1
2616 2889 -1
2617 2617 2.6E1
2617 2618 -1
2617 2632 -1
2617 2633 -1
2617 2634 -1
2617 2856 -1
2617 2857 -1
2617 2858 -1
2617 2872 -1
2617 2873 -1
2617 2874 -1
2617 2888 -1
2617 2889 -1
2617 2890 -1
2618 2618 2.6E1
2618 2619 -1
2618 2633 -1
2618 2634 -1
2618 2635 -1
2618 2857 -1
2618 2858 -1
2618 2859 -1
2618 2873 -1
2618 2874 -1
2618 2875 -1
2618 2889 -1
2618 2890 -1
2618 2891 -1
2619 2619 2.6E1
2619 2620 -1
2619 2634 -1
2619 2635 -1
2619 2636 -1
2619 2858 -1
2619 2859 -1
2619 2860 -1
2619 2874 -1
2619 2875 -1
2619 2876 -1
2619 2890 -1
2619 2891 -1
2619 2892 -1
2620 2620 2.6E1
2620 2621 -1
2620 2635 -1
2620 2636 -1
2620 2637 -1
2620 2859 -1
2620 2860 -1
2620 2861 -1
2620 2875 -1
2620 2876 -1
2620 2877 -1
2620 2891 -1
2620 2892 -1
2620 2893 -1
2621 2621 2.6E1
2621 2622 -1
2621 2636 -1
2621 2637 -1
2621 2638 -1
2621 2860 -1
2621 2861 -1
2621 2862 -1
2621 2876 -1
2621 2877 -1
2621 2878 -1
2621 2892 -1
2621 2893 -1
2621 2894 -1
2622 2622 2.6E1
2622 2623 -1
2622 2637 -1
2622 2638 -1
2622 2639 -1
2622 2861 -1
2622 2862 -1
2622 2863 -1
2622 2877 -1
2622 2878 -1
2622 2879 -1
2622 2893 -1
2622 2894 -1
2622 2895 -1
2623 2623 2.6E1
2623 2624 -1
2623 2638 -1
2623 2639 -1
2623 2640 -1
2623 2862 -1
2623 2863 -1
2623 2864 -1
2623 2878 -1
2623 2879 -1
2623 2880 -1
2623 2894 -1
2623 2895 -1
2623 2896 -1
2624 2624 2.6E1
2624 2639 -1
2624 2640 -1
2624 2863 -1
2624 2864 -1
2624 2879 -1
2624 2880 -1
2624 2895 -1
2624 2896 -1
2625 2625 2.6E1
2625 2626 -1
2625 2641 -1
2625 2642 -1
2625 2865 -1
2625 2866 -1
2625 2881 -1
2625 2882 -1
2625 2897 -1
2625 2898 -1
2626 2626 2.6E1
2626 2627 -1
2626 2641 -1
2626 2642 -1
2626 2643 -1
2626 2865 -1
2626 2866 -1
2626 2867 -1
2626 2881 -1
2626 2882 -1
2626 2883 -1
2626 2897 -1
2626 2898 -1
2626 2899 -1
2627 2627 2.6E1
2627 2628 -1
2627 2642 -1
2627 2643 -1
2627 2644 -1
2627 2866 -1
2627 2867 -1
2627 2868 -1
2627 2882 -1
2627 2883 -1
2627 2884 -1
2627 2898 -1
2627 2899 -1
2627 2900 -1
2628 2628 2.6E1
2628 2629 -1
2628 2643 -1
2628 2644 -1
2628 2645 -1
2628 2867 -1
2628 2868 -1
2628 2869 -1
2628 2883 -1
2628 2884 -1
2628 2885 -1
2628 2899 -1
2628 2900 -1
2628 2901 -1
2629 2629 2.6E1
2629 2630 -1
2629 2644 -1
2629 2645 -1
2629 2646 -1
2629 2868 -1
2629 2869 -1
2629 2870 -1
2629 2884 -1
2629 2885 -1
2629 2886 -1
2629 2900 -1
2629 2901 -1
2629 2902 -1
2630 2630 2.6E1
2630 2631 -1
2630 2645 -1
2630 2646 -1
2630 2647 -1
2630 2869 -1
2630 2870 -1
2630 2871 -1
2630 2885 -1
2630 2886 -1
2630 2887 -1
2630 2901 -1
2630 2902 -1
2630 2903 -1
2631 2631 2.6E1
2631 2632 -1
2631 2646 -1
2631 2647 -1
2631 2648 -1
2631 2870 -1
2631 2871 -1
2631 2872 -1
2631 2886 -1
2631 2887 -1
2631 2888 -1
2631 2902 -1
2631 2903 -1
2631 2904 -1
2632 2632 2.6E1
2632 2633 -1
2632 2647 -1
2632 2648 -1
2632 2649 -1
2632 2871 -1
2632 2872 -1
2632 2873 -1
2632 2887 -1
2632 2888 -1
2632 2889 -1
2632 2903 -1
2632 2904 -1
2632 2905 -1
2633 2633 2.6E1
2633 2634 -1
2633 2648 -1
2633 2649 -1
2633 2650 -1
2633 2872 -1
2633 2873 -1
2633 2874 -1
2633 2888 -1
2633 2889 -1
2633 2890 -1
2633 2904 -1
2633 2905 -1
2633 2906 -1
2634 2634 2.6E1
2634 2635 -1
2634 2649 -1
2634 2650 -1
2634 2651 -1
2634 2873 -1
2634 2874 -1
2634 2875 -1
2634 2889 -1
2634 2890 -1
2634 2891 -1
2634 2905 -1
2634 2906 -1
2634 2907 -1
2635 2635 2.6E1
2635 2636 -1
2635 2650 -1
2635 2651 -1
2635 2652 -1
2635 2874 -1
2635 2875 -1
2635 2876 -1
2635 2890 -1
2635 2891 -1
2635 2892 -1
2635 2906 -1
2635 2907 -1
2635 2908 -1
2636 2636 2.6E1
2636 2637 -1
2636 2651 -1
2636 2652 -1
2636 2653 -1
2636 2875 -1
2636 2876 -1
2636 2877 -1
2636 2891 -1
2636 2892 -1
2636 2893 -1
2636 2907 -1
2636 2908 -1
2636 2909 -1
2637 2637 2.6E1
2637 2638 -1
2637 2652 -1
2637 2653 -1
2637 2654 -1
2637 2876 -1
2637 2877 -1
2637 2878 -1
2637 2892 -1
2637 2893 -1
2637 2894 -1
2637 2908 -1
2637 2909 -1
2637 2910 -1
2638 2638 2.6E1
2638 2639 -1
2638 2653 -1
2638 2654 -1
2638 2655 -1
2638 2877 -1
2638 2878 -1
2638 2879 -1
2638 2893 -1
2638 2894 -1
2638 2895 -1
2638 2909 -1
2638 2910 -1
2638 2911 -1
2639 2639 2.6E1
2639 2640 -1
2639 2654 -1
2639 2655 -1
2639 2656 -1
2639 2878 -1
2639 2879 -1
2639 2880 -1
2639 2894 -1
2639 2895 -1
2639 2896 -1
2639 2910 -1
2639 2911 -1
2639 2912 -1
2640 2640 2.6E1
2640 2655 -1
2640 2656 -1
2640 2879 -1
2640 2880 -1
2640 2895 -1
2640 2896 -1
2640 2911 -1
2640 2912 -1
2641 2641 2.6E1
2641 2642 -1
2641 2657 -1
2641 2658 -1
2641 2881 -1
2641 2882 -1
2641 2897 -1
2641 2898 -1
2641 2913 -1
2641 2914 -1
2642 2642 2.6E1
2642 2643 -1
2642 2657 -1
2642 2658 -1
2642 2659 -1
2642 2881 -1
2642 2882 -1
2642 2883 -1
2642 2897 -1
2642 2898 -1
2642 2899 -1
2642 2913 -1
2642 2914 -1
2642 2915 -1
2643 2643 2.6E1
2643 2644 -1
2643 2658 -1
2643 2659 -1
2643 2660 -1
2643 2882 -1
2643 2883 -1
2643 2884 -1
2643 2898 -1
2643 2899 -1
2643 2900 -1
2643 2914 -1
2643 2915 -1
2643 2916 -1
2644 2644 2.6E1
2644 2645 -1
2644 2659 -1
2644 2660 -1
2644 2661 -1
2644 2883 -1
2644 2884 -1
2644 2885 -1
2644 2899 -1
2644 2900 -1
2644 2901 -1
2644 2915 -1
2644 2916 -1
2644 2917 -1
2645 2645 2.6E1
2645 2646 -1
2645 2660 -1
2645 2661 -1
2645 2662 -1
2645 2884 -1
2645 2885 -1
2645 2886 -1
2645 2900 -1
2645 2901 -1
2645 2902 -1
2645 2916 -1
2645 2917 -1
2645 2918 -1
2646 2646 2.6E1
2646 2647 -1
2646 2661 -1
2646 2662 -1
2646 2663 -1
2646 2885 -1
2646 2886 -1
2646 2887 -1
2646 2901 -1
2646 2902 -1
2646 2903 -1
2646 2917 -1
2646 2918 -1
2646 2919 -1
2647 2647 2.6E1
2647 2648 -1
2647 2662 -1
2647 2663 -1
2647 2664 -1
2647 2886 -1
2647 2887 -1
2647 2888 -1
2647 2902 -1
2647 2903 -1
2647 2904 -1
2647 2918 -1
2647 2919 -1
2647 2920 -1
2648 2648 2.6E1
2648 2649 -1
2648 2663 -1
2648 2664 -1
2648 2665 -1
2648 2887 -1
2648 2888 -1
2648 2889 -1
2648 2903 -1
2648 2904 -1
2648 2905 -1
2648 2919 -1
2648 2920 -1
2648 2921 -1
2649 2649 2.6E1
2649 2650 -1
2649 2664 -1
2649 2665 -1
2649 2666 -1
2649 2888 -1
2649 2889 -1
2649 2890 -1
2649 2904 -1
2649 2905 -1
2649 2906 -1
2649 2920 -1
2649 2921 -1
2649 2922 -1
2650 2650 2.6E1
2650 2651 -1
2650 2665 -1
2650 2666 -1
2650 2667 -1
2650 2889 -1
2650 2890 -1
2650 2891 -1
2650 2905 -1
2650 2906 -1
2650 2907 -1
2650 2921 -1
2650 2922 -1
2650 2923 -1
2651 2651 2.6E1
2651 2652 -1
2651 2666 -1
2651 2667 -1
2651 2668 -1
2651 2890 -1
2651 2891 -1
2651 2892 -1
2651 2906 -1
2651 2907 -1
2651 2908 -1
2651 2922 -1
2651 2923 -1
2651 2924 -1
2652 2652 2.6E1
2652 2653 -1
2652 2667 -1
2652 2668 -1
2652 2669 -1
2652 2891 -1
2652 2892 -1
2652 2893 -1
2652 2907 -1
2652 2908 -1
2652 2909 -1
2652 2923 -1
2652 2924 -1
2652 2925 -1
2653 2653 2.6E1
2653 2654 -1
2653 2668 -1
2653 2669 -1
2653 2670 -1
2653 2892 -1
2653 2893 -1
2653 2894 -1
2653 2908 -1
2653 2909 -1
2653 2910 -1
2653 2924 -1
2653 2925 -1
2653 2926 -1
2654 2654 2.6E1
2654 2655 -1
2654 2669 -1
2654 2670 -1
2654 2671 -1
2654 2893 -1
2654 2894 -1
2654 2895 -1
2654 2909 -1
2654 2910 -1
2654 2911 -1
2654 2925 -1
2654 2926 -1
2654 2927 -1
2655 2655 2.6E1
2655 2656 -1
2655 2670 -1
2655 2671 -1
2655 2672 -1
2655 2894 -1
2655 2895 -1
2655 2896 -1
2655 2910 -1
2655 2911 -1
2655 2912 -1
2655 2926 -1
2655 2927 -1
2655 2928 -1
2656 2656 2.6E1
2656 2671 -1
2656 2672 -1
2656 2895 -1
2656 2896 -1
2656 2911 -1
2656 2912 -1
2656 2927 -1
2656 2928 -1
2657 2657 2.6E1
2657 2658 -1
2657 2673 -1
2657 2674 -1
2657 2897 -1
2657 2898 -1
2657 2913 -1
2657 2914 -1
2657 2929 -1
2657 2930 -1
2658 2658 2.6E1
2658 2659 -1
2658 2673 -1
2658 2674 -1
2658 2675 -1
2658 2897 -1
2658 2898 -1
2658 2899 -1
2658 2913 -1
2658 2914 -1
2658 2915 -1
2658 2929 -1
2658 2930 -1
2658 2931 -1
2659 2659 2.6E1
2659 2660 -1
2659 2674 -1
2659 2675 -1
2659 2676 -1
2659 2898 -1
2659 2899 -1
2659 2900 -1
2659 2914 -1
2659 2915 -1
2659 2916 -1
2659 2930 -1
2659 2931 -1
2659 2932 -1
2660 2660 2.6E1
2660 2661 -1
2660 2675 -1
2660 2676 -1
2660 2677 -1
2660 2899 -1
2660 2900 -1
2660 2901 -1
2660 2915 -1
2660 2916 -1
2660 2917 -1
2660 2931 -1
2660 2932 -1
2660 2933 -1
2661 2661 2.6E1
2661 2662 -1
2661 2676 -1
2661 2677 -1
2661 2678 -1
2661 2900 -1
2661 2901 -1
2661 2902 -1
2661 2916 -1
2661 2917 -1
2661 2918 -1
2661 2932 -1
2661 2933 -1
2661 2934 -1
2662 2662 2.6E1
2662 2663 -1
2662 2677 -1
2662 2678 -1
2662 2679 -1
2662 2901 -1
2662 2902 -1
2662 2903 -1
2662 2917 -1
2662 2918 -1
2662 2919 -1
2662 2933 -1
2662 2934 -1
2662 2935 -1
2663 2663 2.6E1
2663 2664 -1
2663 2678 -1
2663 2679 -1
2663 2680 -1
2663 2902 -1
2663 2903 -1
2663 2904 -1
2663 2918 -1
2663 2919 -1
2663 2920 -1
2663 2934 -1
2663 2935 -1
2663 2936 -1
2664 2664 2.6E1
2664 2665 -1
2664 2679 -1
2664 2680 -1
2664 2681 -1
2664 2903 -1
2664 2904 -1
2664 2905 -1
2664 2919 -1
2664 2920 -1
2664 2921 -1
2664 2935 -1
2664 2936 -1
2664 2937 -1
2665 2665 2.6E1
2665 2666 -1
2665 2680 -1
2665 2681 -1
2665 2682 -1
2665 2904 -1
2665 2905 -1
2665 2906 -1
2665 2920 -1
2665 2921 -1
2665 2922 -1
2665 2936 -1
2665 2937 -1
2665 2938 -1
2666 2666 2.6E1
2666 2667 -1
2666 2681 -1
2666 2682 -1
2666 2683 -1
2666 2905 -1
2666 2906 -1
2666 2907 -1
2666 2921 -1
2666 2922 -1
2666 2923 -1
2666 2937 -1
2666 2938 -1
2666 2939 -1
2667 2667 2.6E1
2667 2668 -1
2667 2682 -1
2667 2683 -1
2667 2684 -1
2667 2906 -1
2667 2907 -1
2667 2908 -1
2667 2922 -1
2667 2923 -1
2667 2924 -1
2667 2938 -1
2667 2939 -1
2667 2940 -1
2668 2668 2.6E1
2668 2669 -1
2668 2683 -1
2668 2684 -1
2668 2685 -1
2668 2907 -1
2668 2908 -1
2668 2909 -1
2668 2923 -1
2668 2924 -1
2668 2925 -1
2668 2939 -1
2668 2940 -1
2668 2941 -1
2669 2669 2.6E1
2669 2670 -1
2669 2684 -1
2669 2685 -1
2669 2686 -1
2669 2908 -1
2669 2909 -1
2669 2910 -1
2669 2924 -1
2669 2925 -1
2669 2926 -1
2669 2940 -1
2669 2941 -1
2669 2942 -1
2670 2670 2.6E1
2670 2671 -1
2670 2685 -1
2670 2686 -1
2670 2687 -1
2670 2909 -1
2670 2910 -1
2670 2911 -1
2670 2925 -1
2670 2926 -1
2670 2927 -1
2670 2941 -1
2670 2942 -1
2670 2943 -1
2671 2671 2.6E1
2671 2672 -1
2671 2686 -1
2671 2687 -1
2671 2688 -1
2671 2910 -1
2671 2911 -1
2671 2912 -1
2671 2926 -1
2671 2927 -1
2671 2928 -1
2671 2942 -1
2671 2943 -1
2671 2944 -1
2672 2672 2.6E1
2672 2687 -1
2672 2688 -1
2672 2911 -1
2672 2912 -1
2672 2927 -1
2672 2928 -1
2672 2943 -1
2672 2944 -1
2673 2673 2.6E1
2673 2674 -1
2673 2689 -1
2673 2690 -1
2673 2913 -1
2673 2914 -1
2673 2929 -1
2673 2930 -1
2673 2945 -1
2673 2946 -1
2674 2674 2.6E1
2674 2675 -1
2674 2689 -1
2674 2690 -1
2674 2691 -1
2674 2913 -1
2674 2914 -1
2674 2915 -1
2674 2929 -1
2674 2930 -1
2674 2931 -1
2674 2945 -1
2674 2946 -1
2674 2947 -1
2675 2675 2.6E1
2675 2676 -1
2675 2690 -1
2675 2691 -1
2675 2692 -1
2675 2914 -1
2675 2915 -1
2675 2916 -1
2675 2930 -1
2675 2931 -1
2675 2932 -1
2675 2946 -1
2675 2947 -1
2675 2948 -1
2676 2676 2.6E1
2676 2677 -1
2676 2691 -1
2676 2692 -1
2676 2693 -1
2676 2915 -1
2676 2916 -1
2676 2917 -1
2676 2931 -1
2676 2932 -1
2676 2933 -1
2676 2947 -1
2676 2948 -1
2676 2949 -1
2677 2677 2.6E1
2677 2678 -1
2677 2692 -1
2677 2693 -1
2677 2694 -1
2677 2916 -1
2677 2917 -1
2677 2918 -1
2677 2932 -1
2677 2933 -1
2677 2934 -1
2677 2948 -1
2677 2949 -1
2677 2950 -1
2678 2678 2.6E1
2678 2679 -1
2678 2693 -1
2678 2694 -1
2678 2695 -1
2678 2917 -1
2678 2918 -1
2678 2919 -1
2678 2933 -1
2678 2934 -1
2678 2935 -1
2678 2949 -1
2678 2950 -1
2678 2951 -1
2679 2679 2.6E1
2679 2680 -1
2679 2694 -1
2679 2695 -1
2679 2696 -1
2679 2918 -1
2679 2919 -1
2679 2920 -1
2679 2934 -1
2679 2935 -1
2679 2936 -1
2679 2950 -1
2679 2951 -1
2679 2952 -1
2680 2680 2.6E1
2680 2681 -1
2680 2695 -1
2680 2696 -1
2680 2697 -1
2680 2919 -1
2680 2920 -1
2680 2921 -1
2680 2935 -1
2680 2936 -1
2680 2937 -1
2680 2951 -1
2680 2952 -1
2680 2953 -1
2681 2681 2.6E1
2681 2682 -1
2681 2696 -1
2681 2697 -1
2681 2698 -1
2681 2920 -1
2681 2921 -1
2681 2922 -1
2681 2936 -1
2681 2937 -1
2681 2938 -1
2681 2952 -1
2681 2953 -1
2681 2954 -1
2682 2682 2.6E1
2682 2683 -1
2682 2697 -1
2682 2698 -1
2682 2699 -1
2682 2921 -1
2682 2922 -1
2682 2923 -1
2682 2937 -1
2682 2938 -1
2682 2939 -1
2682 2953 -1
2682 2954 -1
2682 2955 -1
2683 2683 2.6E1
2683 2684 -1
2683 2698 -1
2683 2699 -1
2683 2700 -1
2683 2922 -1
2683 2923 -1
2683 2924 -1
2683 2938 -1
2683 2939 -1
2683 2940 -1
2683 2954 -1
2683 2955 -1
2683 2956 -1
2684 2684 2.6E1
2684 2685 -1
2684 2699 -1
2684 2700 -1
2684 2701 -1
2684 2923 -1
2684 2924 -1
2684 2925 -1
2684 2939 -1
2684 2940 -1
2684 2941 -1
2684 2955 -1
2684 2956 -1
2684 2957 -1
2685 2685 2.6E1
2685 2686 -1
2685 2700 -1
2685 2701 -1
2685 2702 -1
2685 2924 -1
2685 2925 -1
2685 2926 -1
2685 2940 -1
2685 2941 -1
2685 2942 -1
2685 2956 -1
2685 2957 -1
2685 2958 -1
2686 2686 2.6E1
2686 2687 -1
2686 2701 -1
2686 2702 -1
2686 2703 -1
2686 2925 -1
2686 2926 -1
2686 2927 -1
2686 2941 -1
2686 2942 -1
2686 2943 -1
2686 2957 -1
2686 2958 -1
2686 2959 -1
2687 2687 2.6E1
2687 2688 -1
2687 2702 -1
2687 2703 -1
2687 2704 -1
2687 2926 -1
2687 2927 -1
2687 2928 -1
2687 2942 -1
2687 2943 -1
2687 2944 -1
2687 2958 -1
2687 2959 -1
2687 2960 -1
2688 2688 2.6E1
2688 2703 -1
2688 2704 -1
2688 2927 -1
2688 2928 -1
2688 2943 -1
2688 2944 -1
2688 2959 -1
2688 2960 -1
2689 2689 2.6E1
2689 2690 -1
2689 2705 -1
2689 2706 -1
2689 2929 -1
2689 2930 -1
2689 2945 -1
2689 2946 -1
2689 2961 -1
2689 2962 -1
2690 2690 2.6E1
2690 2691 -1
2690 2705 -1
2690 2706 -1
2690 2707 -1
2690 2929 -1
2690 2930 -1
2690 2931 -1
2690 2945 -1
2690 2946 -1
2690 2947 -1
2690 2961 -1
2690 2962 -1
2690 2963 -1
2691 2691 2.6E1
2691 2692 -1
2691 2706 -1
2691 2707 -1
2691 2708 -1
2691 2930 -1
2691 2931 -1
2691 2932 -1
2691 2946 -1
2691 2947 -1
2691 2948 -1
2691 2962 -1
2691 2963 -1
2691 2964 -1
2692 2692 2.6E1
2692 2693 -1
2692 2707 -1
2692 2708 -1
2692 2709 -1
2692 2931 -1
2692 2932 -1
2692 2933 -1
2692 2947 -1
2692 2948 -1
2692 2949 -1
2692 2963 -1
2692 2964 -1
2692 2965 -1
2693 2693 2.6E1
2693 2694 -1
2693 2708 -1
2693 2709 -1
2693 2710 -1
2693 2932 -1
2693 2933 -1
2693 2934 -1
2693 2948 -1
2693 2949 -1
2693 2950 -1
2693 2964 -1
2693 2965 -1
2693 2966 -1
2694 2694 2.6E1
2694 2695 -1
2694 2709 -1
2694 2710 -1
2694 2711 -1
2694 2933 -1
2694 2934 -1
2694 2935 -1
2694 2949 -1
2694 2950 -1
2694 2951 -1
2694 2965 -1
2694 2966 -1
2694 2967 -1
2695 2695 2.6E1
2695 2696 -1
2695 2710 -1
2695 2711 -1
2695 2712 -1
2695 2934 -1
2695 2935 -1
2695 2936 -1
2695 2950 -1
2695 2951 -1
2695 2952 -1
2695 2966 -1
2695 2967 -1
2695 2968 -1
2696 2696 2.6E1
2696 2697 -1
2696 2711 -1
2696 2712 -1
2696 2713 -1
2696 2935 -1
2696 2936 -1
2696 2937 -1
2696 2951 -1
2696 2952 -1
2696 2953 -1
2696 2967 -1
2696 2968 -1
2696 2969 -1
2697 2697 2.6E1
2697 2698 -1
2697 2712 -1
2697 2713 -1
2697 2714 -1
2697 2936 -1
2697 2937 -1
2697 2938 -1
2697 2952 -1
2697 2953 -1
2697 2954 -1
2697 2968 -1
2697 2969 -1
2697 2970 -1
2698 2698 2.6E1
2698 2699 -1
2698 2713 -1
2698 2714 -1
2698 2715 -1
2698 2937 -1
2698 2938 -1
2698 2939 -1
2698 2953 -1
2698 2954 -1
2698 2955 -1
2698 2969 -1
2698 2970 -1
2698 2971 -1
2699 2699 2.6E1
2699 2700 -1
2699 2714 -1
2699 2715 -1
2699 2716 -1
2699 2938 -1
2699 2939 -1
2699 2940 -1
2699 2954 -1
2699 2955 -1
2699 2956 -1
2699 2970 -1
2699 2971 -1
2699 2972 -1
2700 2700 2.6E1
2700 2701 -1
2700 2715 -1
2700 2716 -1
2700 2717 -1
2700 2939 -1
2700 2940 -1
2700 2941 -1
2700 2955 -1
2700 2956 -1
2700 2957 -1
2700 2971 -1
2700 2972 -1
2700 2973 -1
2701 2701 2.6E1
2701 2702 -1
2701 2716 -1
2701 2717 -1
2701 2718 -1
2701 2940 -1
2701 2941 -1
2701 2942 -1
2701 2956 -1
2701 2957 -1
2701 2958 -1
2701 2972 -1
2701 2973 -1
2701 2974 -1
2702 2702 2.6E1
2702 2703 -1
2702 2717 -1
2702 2718 -1
2702 2719 -1
2702 2941 -1
2702 2942 -1
2702 2943 -1
2702 2957 -1
2702 2958 -1
2702 2959 -1
2702 2973 -1
2702 2974 -1
2702 2975 -1
2703 2703 2.6E1
2703 2704 -1
2703 2718 -1
2703 2719 -1
2703 2720 -1
2703 2942 -1
2703 2943 -1
2703 2944 -1
2703 2958 -1
2703 2959 -1
2703 2960 -1
2703 2974 -1
2703 2975 -1
2703 2976 -1
2704 2704 2.6E1
2704 2719 -1
2704 2720 -1
2704 2943 -1
2704 2944 -1
2704 2959 -1
2704 2960 -1
2704 2975 -1
2704 2976 -1
2705 2705 2.6E1
2705 2706 -1
2705 2721 -1
2705 2722 -1
2705 2945 -1
2705 2946 -1
2705 2961 -1
2705 2962 -1
2705 2977 -1
2705 2978 -1
2706 2706 2.6E1
2706 2707 -1
2706 2721 -1
2706 2722 -1
2706 2723 -1
2706 2945 -1
2706 2946 -1
2706 2947 -1
2706 2961 -1
2706 2962 -1
2706 2963 -1
2706 2977 -1
2706 2978 -1
2706 2979 -1
2707 2707 2.6E1
2707 2708 -1
2707 2722 -1
2707 2723 -1
2707 2724 -1
2707 2946 -1
2707 2947 -1
2707 2948 -1
2707 2962 -1
2707 2963 -1
2707 2964 -1
2707 2978 -1
2707 2979 -1
2707 2980 -1
2708 2708 2.6E1
2708 2709 -1
2708 2723 -1
2708 2724 -1
2708 2725 -1
2708 2947 -1
2708 2948 -1
2708 2949 -1
2708 2963 -1
2708 2964 -1
2708 2965 -1
2708 2979 -1
2708 2980 -1
2708 2981 -1
2709 2709 2.6E1
2709 2710 -1
2709 2724 -1
2709 2725 -1
2709 2726 -1
2709 2948 -1
2709 2949 -1
2709 2950 -1
2709 2964 -1
2709 2965 -1
2709 2966 -1
2709 2980 -1
2709 2981 -1
2709 2982 -1
2710 2710 2.6E1
2710 2711 -1
2710 2725 -1
2710 2726 -1
2710 2727 -1
2710 2949 -1
2710 2950 -1
2710 2951 -1
2710 2965 -1
2710 2966 -1
2710 2967 -1
2710 2981 -1
2710 2982 -1
2710 2983 -1
2711 2711 2.6E1
2711 2712 -1
2711 2726 -1
2711 2727 -1
2711 2728 -1
2711 2950 -1
2711 2951 -1
2711 2952 -1
2711 2966 -1
2711 2967 -1
2711 2968 -1
2711 2982 -1
2711 2983 -1
2711 2984 -1
2712 2712 2.6E1
2712 2713 -1
2712 2727 -1
2712 2728 -1
2712 2729 -1
2712 2951 -1
2712 2952 -1
2712 2953 -1
2712 2967 -1
2712 2968 -1
2712 2969 -1
2712 2983 -1
2712 2984 -1
2712 2985 -1
2713 2713 2.6E1
2713 2714 -1
2713 2728 -1
2713 2729 -1
2713 2730 -1
2713 2952 -1
2713 2953 -1
2713 2954 -1
2713 2968 -1
2713 2969 -1
2713 2970 -1
2713 2984 -1
2713 2985 -1
2713 2986 -1
2714 2714 2.6E1
2714 2715 -1
2714 2729 -1
2714 2730 -1
2714 2731 -1
2714 2953 -1
2714 2954 -1
2714 2955 -1
2714 2969 -1
2714 2970 -1
2714 2971 -1
2714 2985 -1
2714 2986 -1
2714 2987 -1
2715 2715 2.6E1
2715 2716 -1
2715 2730 -1
2715 2731 -1
2715 2732 -1
2715 2954 -1
2715 2955 -1
2715 2956 -1
2715 2970 -1
2715 2971 -1
2715 2972 -1
2715 2986 -1
2715 2987 -1
2715 2988 -1
2716 2716 2.6E1
2716 2717 -1
2716 2731 -1
2716 2732 -1
2716 2733 -1
2716 2955 -1
2716 2956 -1
2716 2957 -1
2716 2971 -1
2716 2972 -1
2716 2973 -1
2716 2987 -1
2716 2988 -1
2716 2989 -1
2717 2717 2.6E1
2717 2718 -1
2717 2732 -1
2717 2733 -1
2717 2734 -1
2717 2956 -1
2717 2957 -1
2717 2958 -1
2717 2972 -1
2717 2973 -1
2717 2974 -1
2717 2988 -1
2717 2989 -1
2717 2990 -1
2718 2718 2.6E1
2718 2719 -1
2718 2733 -1
2718 2734 -1
2718 2735 -1
2718 2957 -1
2718 2958 -1
2718 2959 -1
2718 2973 -1
2718 2974 -1
2718 2975 -1
2718 2989 -1
2718 2990 -1
2718 2991 -1
2719 2719 2.6E1
2719 2720 -1
2719 2734 -1
2719 2735 -1
2719 2736 -1
2719 2958 -1
2719 2959 -1
2719 2960 -1
2719 2974 -1
2719 2975 -1
2719 2976 -1
2719 2990 -1
2719 2991 -1
2719 2992 -1
2720 2720 2.6E1
2720 2735 -1
2720 2736 -1
2720 2959 -1
2720 2960 -1
2720 2975 -1
2720 2976 -1
2720 2991 -1
2720 2992 -1
2721 2721 2.6E1
2721 2722 -1
2721 2737 -1
2721 2738 -1
2721 2961 -1
2721 2962 -1
2721 2977 -1
2721 2978 -1
2721 2993 -1
2721 2994 -1
2722 2722 2.6E1
2722 2723 -1
2722 2737 -1
2722 2738 -1
2722 2739 -1
2722 2961 -1
2722 2962 -1
2722 2963 -1
2722 2977 -1
2722 2978 -1
2722 2979 -1
2722 2993 -1
2722 2994 -1
2722 2995 -1
2723 2723 2.6E1
2723 2724 -1
2723 2738 -1
2723 2739 -1
2723 2740 -1
2723 2962 -1
2723 2963 -1
2723 2964 -1
2723 2978 -1
2723 2979 -1
2723 2980 -1
2723 2994 -1
2723 2995 -1
2723 2996 -1
2724 2724 2.6E1
2724 2725 -1
2724 2739 -1
2724 2740 -1
2724 2741 -1
2724 2963 -1
2724 2964 -1
2724 2965 -1
2724 2979 -1
2724 2980 -1
2724 2981 -1
2724 2995 -1
2724 2996 -1
2724 2997 -1
2725 2725 2.6E1
2725 2726 -1
2725 2740 -1
2725 2741 -1
2725 2742 -1
2725 2964 -1
2725 2965 -1
2725 2966 -1
2725 2980 -1
2725 2981 -1
2725 2982 -1
2725 2996 -1
2725 2997 -1
2725 2998 -1
2726 2726 2.6E1
2726 2727 -1
2726 2741 -1
2726 2742 -1
2726 2743 -1
2726 2965 -1
2726 2966 -1
2726 2967 -1
2726 2981 -1
2726 2982 -1
2726 2983 -1
2726 2997 -1
2726 2998 -1
2726 2999 -1
2727 2727 2.6E1
2727 2728 -1
2727 2742 -1
2727 2743 -1
2727 2744 -1
2727 2966 -1
2727 2967 -1
2727 2968 -1
2727 2982 -1
2727 2983 -1
2727 2984 -1
2727 2998 -1
2727 2999 -1
2727 3000 -1
2728 2728 2.6E1
2728 2729 -1
2728 2743 -1
2728 2744 -1
2728 2745 -1
2728 2967 -1
2728 2968 -1
2728 2969 -1
2728 2983 -1
2728 2984 -1
2728 2985 -1
2728 2999 -1
2728 3000 -1
2728 3001 -1
2729 2729 2.6E1
2729 2730 -1
2729 2744 -1
2729 2745 -1
2729 2746 -1
2729 2968 -1
2729 2969 -1
2729 2970 -1
2729 2984 -1
2729 2985 -1
2729 2986 -1
2729 3000 -1
2729 3001 -1
2729 3002 -1
2730 2730 2.6E1
2730 2731 -1
2730 2745 -1
2730 2746 -1
2730 2747 -1
2730 2969 -1
2730 2970 -1
2730 2971 -1
2730 2985 -1
2730 2986 -1
2730 2987 -1
2730 3001 -1
2730 3002 -1
2730 3003 -1
2731 2731 2.6E1
2731 2732 -1
2731 2746 -1
2731 2747 -1
2731 2748 -1
2731 2970 -1
2731 2971 -1
2731 2972 -1
2731 2986 -1
2731 2987 -1
2731 2988 -1
2731 3002 -1
2731 3003 -1
2731 3004 -1
2732 2732 2.6E1
2732 2733 -1
2732 2747 -1
2732 2748 -1
2732 2749 -1
2732 2971 -1
2732 2972 -1
2732 2973 -1
2732 2987 -1
2732 2988 -1
2732 2989 -1
2732 3003 -1
2732 3004 -1
2732 3005 -1
2733 2733 2.6E1
2733 2734 -1
2733 2748 -1
2733 2749 -1
2733 2750 -1
2733 2972 -1
2733 2973 -1
2733 2974 -1
2733 2988 -1
2733 2989 -1
2733 2990 -1
2733 3004 -1
2733 3005 -1
2733 3006 -1
2734 2734 2.6E1
2734 2735 -1
2734 2749 -1
2734 2750 -1
2734 2751 -1
2734 2973 -1
2734 2974 -1
2734 2975 -1
2734 2989 -1
2734 2990 -1
2734 2991 -1
2734 3005 -1
2734 3006 -1
2734 3007 -1
2735 2735 2.6E1
2735 2736 -1
2735 2750 -1
2735 2751 -1
2735 2752 -1
2735 2974 -1
2735 2975 -1
2735 2976 -1
2735 2990 -1
2735 2991 -1
2735 2992 -1
2735 3006 -1
2735 3007 -1
2735 3008 -1
2736 2736 2.6E1
2736 2751 -1
2736 2752 -1
2736 2975 -1
2736 2976 -1
2736 2991 -1
2736 2992 -1
2736 3007 -1
2736 3008 -1
2737 2737 2.6E1
2737 2738 -1
2737 2753 -1
2737 2754 -1
2737 2977 -1
2737 2978 -1
2737 2993 -1
2737 2994 -1
2737 3009 -1
2737 3010 -1
2738 2738 2.6E1
2738 2739 -1
2738 2753 -1
2738 2754 -1
2738 2755 -1
2738 2977 -1
2738 2978 -1
2738 2979 -1
2738 2993 -1
2738 2994 -1
2738 2995 -1
2738 3009 -1
2738 3010 -1
2738 3011 -1
2739 2739 2.6E1
2739 2740 -1
2739 2754 -1
2739 2755 -1
2739 2756 -1
2739 2978 -1
2739 2979 -1
2739 2980 -1
2739 2994 -1
2739 2995 -1
2739 2996 -1
2739 3010 -1
2739 3011 -1
2739 3012 -1
2740 2740 2.6E1
2740 2741 -1
2740 2755 -1
2740 2756 -1
2740 2757 -1
2740 2979 -1
2740 2980 -1
2740 2981 -1
2740 2995 -1
2740 2996 -1
2740 2997 -1
2740 3011 -1
2740 3012 -1
2740 3013 -1
2741 2741 2.6E1
2741 2742 -1
2741 2756 -1
2741 2757 -1
2741 2758 -1
2741 2980 -1
2741 2981 -1
2741 2982 -1
2741 2996 -1
2741 2997 -1
2741 2998 -1
2741 3012 -1
2741 3013 -1
2741 3014 -1
2742 2742 2.6E1
2742 2743 -1
2742 2757 -1
2742 2758 -1
2742 2759 -1
2742 2981 -1
2742 2982 -1
2742 2983 -1
2742 2997 -1
2742 2998 -1
2742 2999 -1
2742 3013 -1
2742 3014 -1
2742 3015 -1
2743 2743 2.6E1
2743 2744 -1
2743 2758 -1
2743 2759 -1
2743 2760 -1
2743 2982 -1
2743 2983 -1
2743 2984 -1
2743 2998 -1
2743 2999 -1
2743 3000 -1
2743 3014 -1
2743 3015 -1
2743 3016 -1
2744 2744 2.6E1
2744 2745 -1
2744 2759 -1
2744 2760 -1
2744 2761 -1
2744 2983 -1
2744 2984 -1
2744 2985 -1
2744 2999 -1
2744 3000 -1
2744 3001 -1
2744 3015 -1
2744 3016 -1
2744 3017 -1
2745 2745 2.6E1
2745 2746 -1
2745 2760 -1
2745 2761 -1
2745 2762 -1
2745 2984 -1
2745 2985 -1
2745 2986 -1
2745 3000 -1
2745 3001 -1
2745 3002 -1
2745 3016 -1
2745 3017 -1
2745 3018 -1
2746 2746 2.6E1
2746 2747 -1
2746 2761 -1
2746 2762 -1
2746 2763 -1
2746 2985 -1
2746 2986 -1
2746 2987 -1
2746 3001 -1
2746 3002 -1
2746 3003 -1
2746 3017 -1
2746 3018 -1
2746 3019 -1
2747 2747 2.6E1
2747 2748 -1
2747 2762 -1
2747 2763 -1
2747 2764 -1
2747 2986 -1
2747 2987 -1
2747 2988 -1
2747 3002 -1
2747 3003 -1
2747 3004 -1
2747 3018 -1
2747 3019 -1
2747 3020 -1
2748 2748 2.6E1
2748 2749 -1
2748 2763 -1
2748 2764 -1
2748 2765 -1
2748 2987 -1
2748 2988 -1
2748 2989 -1
2748 3003 -1
2748 3004 -1
2748 3005 -1
2748 3019 -1
2748 3020 -1
2748 3021 -1
2749 2749 2.6E1
2749 2750 -1
2749 2764 -1
2749 2765 -1
2749 2766 -1
2749 2988 -1
2749 2989 -1
2749 2990 -1
2749 3004 -1
2749 3005 -1
2749 3006 -1
2749 3020 -1
2749 3021 -1
2749 3022 -1
2750 2750 2.6E1
2750 2751 -1
2750 2765 -1
2750 2766 -1
2750 2767 -1
2750 2989 -1
2750 2990 -1
2750 2991 -1
2750 3005 -1
2750 3006 -1
2750 3007 -1
2750 3021 -1
2750 3022 -1
2750 3023 -1
2751 2751 2.6E1
2751 2752 -1
2751 2766 -1
2751 2767 -1
2751 2768 -1
2751 2990 -1
2751 2991 -1
2751 2992 -1
2751 3006 -1
2751 3007 -1
2751 3008 -1
2751 3022 -1
2751 3023 -1
2751 3024 -1
2752 2752 2.6E1
2752 2767 -1
2752 2768 -1
2752 2991 -1
2752 2992 -1
2752 3007 -1
2752 3008 -1
2752 3023 -1
2752 3024 -1
2753 2753 2.6E1
2753 2754 -1
2753 2769 -1
2753 2770 -1
2753 2993 -1
2753 2994 -1
2753 3009 -1
2753 3010 -1
2753 3025 -1
2753 3026 -1
2754 2754 2.6E1
2754 2755 -1
2754 2769 -1
2754 2770 -1
2754 2771 -1
2754 2993 -1
2754 2994 -1
2754 2995 -1
2754 3009 -1
2754 3010 -1
2754 3011 -1
2754 3025 -1
2754 3026 -1
2754 3027 -1
2755 2755 2.6E1
2755 2756 -1
2755 2770 -1
2755 2771 -1
2755 2772 -1
2755 2994 -1
2755 2995 -1
2755 2996 -1
2755 3010 -1
2755 3011 -1
2755 3012 -1
2755 3026 -1
2755 3027 -1
2755 3028 -1
2756 2756 2.6E1
2756 2757 -1
2756 2771 -1
2756 2772 -1
2756 2773 -1
2756 2995 -1
2756 2996 -1
2756 2997 -1
2756 3011 -1
2756 3012 -1
2756 3013 -1
2756 3027 -1
2756 3028 -1
2756 3029 -1
2757 2757 2.6E1
2757 2758 -1
2757 2772 -1
2757 2773 -1
2757 2774 -1
2757 2996 -1
2757 2997 -1
2757 2998 -1
2757 3012 -1
2757 3013 -1
2757 3014 -1
2757 3028 -1
2757 3029 -1
2757 3030 -1
2758 2758 2.6E1
2758 2759 -1
2758 2773 -1
2758 2774 -1
2758 2775 -1
2758 2997 -1
2758 2998 -1
2758 2999 -1
2758 3013 -1
2758 3014 -1
2758 3015 -1
2758 3029 -1
2758 3030 -1
2758 3031 -1
2759 2759 2.6E1
2759 2760 -1
2759 2774 -1
2759 2775 -1
2759 2776 -1
2759 2998 -1
2759 2999 -1
2759 3000 -1
2759 3014 -1
2759 3015 -1
2759 3016 -1
2759 3030 -1
2759 3031 -1
2759 3032 -1
2760 2760 2.6E1
2760 2761 -1
2760 2775 -1
2760 2776 -1
2760 2777 -1
2760 2999 -1
2760 3000 -1
2760 3001 -1
2760 3015 -1
2760 3016 -1
2760 3017 -1
2760 3031 -1
2760 3032 -1
2760 3033 -1
2761 2761 2.6E1
2761 2762 -1
2761 2776 -1
2761 2777 -1
2761 2778 -1
2761 3000 -1
2761 3001 -1
2761 3002 -1
2761 3016 -1
2761 3017 -1
2761 3018 -1
2761 3032 -1
2761 3033 -1
2761 3034 -1
2762 2762 2.6E1
2762 2763 -1
2762 2777 -1
2762 2778 -1
2762 2779 -1
2762 3001 -1
2762 3002 -1
2762 3003 -1
2762 3017 -1
2762 3018 -1
2762 3019 -1
2762 3033 -1
2762 3034 -1
2762 3035 -1
2763 2763 2.6E1
2763 2764 -1
2763 2778 -1
2763 2779 -1
2763 2780 -1
2763 3002 -1
2763 3003 -1
2763 3004 -1
2763 3018 -1
2763 3019 -1
2763 3020 -1
2763 3034 -1
2763 3035 -1
2763 3036 -1
2764 2764 2.6E1
2764 2765 -1
2764 2779 -1
2764 2780 -1
2764 2781 -1
2764 3003 -1
2764 3004 -1
2764 3005 -1
2764 3019 -1
2764 3020 -1
2764 3021 -1
2764 3035 -1
2764 3036 -1
2764 3037 -1
2765 2765 2.6E1
2765 2766 -1
2765 2780 -1
2765 2781 -1
2765 2782 -1
2765 3004 -1
2765 3005 -1
2765 3006 -1
2765 3020 -1
2765 3021 -1
2765 3022 -1
2765 3036 -1
2765 3037 -1
2765 3038 -1
2766 2766 2.6E1
2766 2767 -1
2766 2781 -1
2766 2782 -1
2766 2783 -1
2766 3005 -1
2766 3006 -1
2766 3007 -1
2766 3021 -1
2766 3022 -1
2766 3023 -1
2766 3037 -1
2766 3038 -1
2766 3039 -1
2767 2767 2.6E1
2767 2768 -1
2767 2782 -1
2767 2783 -1
2767 2784 -1
2767 3006 -1
2767 3007 -1
2767 3008 -1
2767 3022 -1
2767 3023 -1
2767 3024 -1
2767 3038 -1
2767 3039 -1
2767 3040 -1
2768 2768 2.6E1
2768 2783 -1
2768 2784 -1
2768 3007 -1
2768 3008 -1
2768 3023 -1
2768 3024 -1
2768 3039 -1
2768 3040 -1
2769 2769 2.6E1
2769 2770 -1
2769 2785 -1
2769 2786 -1
2769 3009 -1
2769 3010 -1
2769 3025 -1
2769 3026 -1
2769 3041 -1
2769 3042 -1
2770 2770 2.6E1
2770 2771 -1
2770 2785 -1
2770 2786 -1
2770 2787 -1
2770 3009 -1
2770 3010 -1
2770 3011 -1
2770 3025 -1
2770 3026 -1
2770 3027 -1
2770 3041 -1
2770 3042 -1
2770 3043 -1
2771 2771 2.6E1
2771 2772 -1
2771 2786 -1
2771 2787 -1
2771 2788 -1
2771 3010 -1
2771 3011 -1
2771 3012 -1
2771 3026 -1
2771 3027 -1
2771 3028 -1
2771 3042 -1
2771 3043 -1
2771 3044 -1
2772 2772 2.6E1
2772 2773 -1
2772 2787 -1
2772 2788 -1
2772 2789 -1
2772 3011 -1
2772 3012 -1
2772 3013 -1
2772 3027 -1
2772 3028 -1
2772 3029 -1
2772 3043 -1
2772 3044 -1
2772 3045 -1
2773 2773 2.6E1
2773 2774 -1
2773 2788 -1
2773 2789 -1
2773 2790 -1
2773 3012 -1
2773 3013 -1
2773 3014 -1
2773 3028 -1
2773 3029 -1
2773 3030 -1
2773 3044 -1
2773 3045 -1
2773 3046 -1
2774 2774 2.6E1
2774 2775 -1
2774 2789 -1
2774 2790 -1
2774 2791 -1
2774 3013 -1
2774 3014 -1
2774 3015 -1
2774 3029 -1
2774 3030 -1
2774 3031 -1
2774 3045 -1
2774 3046 -1
2774 3047 -1
2775 2775 2.6E1
2775 2776 -1
2775 2790 -1
2775 2791 -1
2775 2792 -1
2775 3014 -1
2775 3015 -1
2775 3016 -1
2775 3030 -1
2775 3031 -1
2775 3032 -1
2775 3046 -1
2775 3047 -1
2775 3048 -1
2776 2776 2.6E1
2776 2777 -1
2776 2791 -1
2776 2792 -1
2776 2793 -1
2776 3015 -1
2776 3016 -1
2776 3017 -1
2776 3031 -1
2776 3032 -1
2776 3033 -1
2776 3047 -1
2776 3048 -1
2776 3049 -1
2777 2777 2.6E1
2777 2778 -1
2777 2792 -1
2777 2793 -1
2777 2794 -1
2777 3016 -1
2777 3017 -1
2777 3018 -1
2777 3032 -1
2777 3033 -1
2777 3034 -1
2777 3048 -1
2777 3049 -1
2777 3050 -1
2778 2778 2.6E1
2778 2779 -1
2778 2793 -1
2778 2794 -1
2778 2795 -1
2778 3017 -1
2778 3018 -1
2778 3019 -1
2778 3033 -1
2778 3034 -1
2778 3035 -1
2778 3049 -1
2778 3050 -1
2778 3051 -1
2779 2779 2.6E1
2779 2780 -1
2779 2794 -1
2779 2795 -1
2779 2796 -1
2779 3018 -1
2779 3019 -1
2779 3020 -1
2779 3034 -1
2779 3035 -1
2779 3036 -1
2779 3050 -1
2779 3051 -1
2779 3052 -1
2780 2780 2.6E1
2780 2781 -1
2780 2795 -1
2780 2796 -1
2780 2797 -1
2780 3019 -1
2780 3020 -1
2780 3021 -1
2780 3035 -1
2780 3036 -1
2780 3037 -1
2780 3051 -1
2780 3052 -1
2780 3053 -1
2781 2781 2.6E1
2781 2782 -1
2781 2796 -1
2781 2797 -1
2781 2798 -1
2781 3020 -1
2781 3021 -1
2781 3022 -1
2781 3036 -1
2781 3037 -1
2781 3038 -1
2781 3052 -1
2781 3053 -1
2781 3054 -1
2782 2782 2.6E1
2782 2783 -1
2782 2797 -1
2782 2798 -1
2782 2799 -1
2782 3021 -1
2782 3022 -1
2782 3023 -1
2782 3037 -1
2782 3038 -1
2782 3039 -1
2782 3053 -1
2782 3054 -1
2782 3055 -1
2783 2783 2.6E1
2783 2784 -1
2783 2798 -1
2783 2799 -1
2783 2800 -1
2783 3022 -1
2783 3023 -1
2783 3024 -1
2783 3038 -1
2783 3039 -1
2783 3040 -1
2783 3054 -1
2783 3055 -1
2783 3056 -1
2784 2784 2.6E1
2784 2799 -1
2784 2800 -1
2784 3023 -1
2784 3024 -1
2784 3039 -1
2784 3040 -1
2784 3055 -1
2784 3056 -1
2785 2785 2.6E1
2785 2786 -1
2785 2801 -1
2785 2802 -1
2785 3025 -1
2785 3026 -1
2785 3041 -1
2785 3042 -1
2785 3057 -1
2785 3058 -1
2786 2786 2.6E1
2786 2787 -1
2786 2801 -1
2786 2802 -1
2786 2803 -1
2786 3025 -1
2786 3026 -1
2786 3027 -1
2786 3041 -1
2786 3042 -1
2786 3043 -1
2786 3057 -1
2786 3058 -1
2786 3059 -1
2787 2787 2.6E1
2787 2788 -1
2787 2802 -1
2787 2803 -1
2787 2804 -1
2787 3026 -1
2787 3027 -1
2787 3028 -1
2787 3042 -1
2787 3043 -1
2787 3044 -1
2787 3058 -1
2787 3059 -1
2787 3060 -1
2788 2788 2.6E1
2788 2789 -1
2788 2803 -1
2788 2804 -1
2788 2805 -1
2788 3027 -1
2788 3028 -1
2788 3029 -1
2788 3043 -1
2788 3044 -1
2788 3045 -1
2788 3059 -1
2788 3060 -1
2788 3061 -1
2789 2789 2.6E1
2789 2790 -1
2789 2804 -1
2789 2805 -1
2789 2806 -1
2789 3028 -1
2789 3029 -1
2789 3030 -1
2789 3044 -1
2789 3045 -1
2789 3046 -1
2789 3060 -1
2789 3061 -1
2789 3062 -1
2790 2790 2.6E1
2790 2791 -1
2790 2805 -1
2790 2806 -1
2790 2807 -1
2790 3029 -1
2790 3030 -1
2790 3031 -1
2790 3045 -1
2790 3046 -1
2790 3047 -1
2790 3061 -1
2790 3062 -1
2790 3063 -1
2791 2791 2.6E1
2791 2792 -1
2791 2806 -1
2791 2807 -1
2791 2808 -1
2791 3030 -1
2791 3031 -1
2791 3032 -1
2791 3046 -1
2791 3047 -1
2791 3048 -1
2791 3062 -1
2791 3063 -1
2791 3064 -1
2792 2792 2.6E1
2792 2793 -1
2792 2807 -1
2792 2808 -1
2792 2809 -1
2792 3031 -1
2792 3032 -1
2792 3033 -1
2792 3047 -1
2792 3048 -1
2792 3049 -1
2792 3063 -1
2792 3064 -1
2792 3065 -1
2793 2793 2.6E1
2793 2794 -1
2793 2808 -1
2793 2809 -1
2793 2810 -1
2793 3032 -1
2793 3033 -1
2793 3034 -1
2793 3048 -1
2793 3049 -1
2793 3050 -1
2793 3064 -1
2793 3065 -1
2793 3066 -1
2794 2794 2.6E1
2794 2795 -1
2794 2809 -1
2794 2810 -1
2794 2811 -1
2794 3033 -1
2794 3034 -1
2794 3035 -1
2794 3049 -1
2794 3050 -1
2794 3051 -1
2794 3065 -1
2794 3066 -1
2794 3067 -1
2795 2795 2.6E1
2795 2796 -1
2795 2810 -1
2795 2811 -1
2795 2812 -1
2795 3034 -1
2795 3035 -1
2795 3036 -1
2795 3050 -1
2795 3051 -1
2795 3052 -1
2795 3066 -1
2795 3067 -1
2795 3068 -1
2796 2796 2.6E1
2796 2797 -1
2796 2811 -1
2796 2812 -1
2796 2813 -1
2796 3035 -1
2796 3036 -1
2796 3037 -1
2796 3051 -1
2796 3052 -1
2796 3053 -1
2796 3067 -1
2796 3068 -1
2796 3069 -1
2797 2797 2.6E1
2797 2798 -1
2797 2812 -1
2797 2813 -1
2797 2814 -1
2797 3036 -1
2797 3037 -1
2797 3038 -1
2797 3052 -1
2797 3053 -1
2797 3054 -1
2797 3068 -1
2797 3069 -1
2797 3070 -1
2798 2798 2.6E1
2798 2799 -1
2798 2813 -1
2798 2814 -1
2798 2815 -1
2798 3037 -1
2798 3038 -1
2798 3039 -1
2798 3053 -1
2798 3054 -1
2798 3055 -1
2798 3069 -1
2798 3070 -1
2798 3071 -1
2799 2799 2.6E1
2799 2800 -1
2799 2814 -1
2799 2815 -1
2799 2816 -1
2799 3038 -1
2799 3039 -1
2799 3040 -1
2799 3054 -1
2799 3055 -1
2799 3056 -1
2799 3070 -1
2799 3071 -1
2799 3072 -1
2800 2800 2.6E1
2800 2815 -1
2800 2816 -1
2800 3039 -1
2800 3040 -1
2800 3055 -1
2800 3056 -1
2800 3071 -1
2800 3072 -1
2801 2801 2.6E1
2801 2802 -1
2801 3041 -1
2801 3042 -1
2801 3057 -1
2801 3058 -1
2802 2802 2.6E1
2802 2803 -1
2802 3041 -1
2802 3042 -1
2802 3043 -1
2802 3057 -1
2802 3058 -1
2802 3059 -1
2803 2803 2.6E1
2803 2804 -1
2803 3042 -1
2803 3043 -1
2803 3044 -1
2803 3058 -1
2803 3059 -1
2803 3060 -1
2804 2804 2.6E1
2804 2805 -1
2804 3043 -1
2804 3044 -1
2804 3045 -1
2804 3059 -1
2804 3060 -1
2804 3061 -1
2805 2805 2.6E1
2805 2806 -1
2805 3044 -1
2805 3045 -1
2805 3046 -1
2805 3060 -1
2805 3061 -1
2805 3062 -1
2806 2806 2.6E1
2806 2807 -1
2806 3045 -1
2806 3046 -1
2806 3047 -1
2806 3061 -1
2806 3062 -1
2806 3063 -1
2807 2807 2.6E1
2807 2808 -1
2807 3046 -1
2807 3047 -1
2807 3048 -1
2807 3062 -1
2807 3063 -1
2807 3064 -1
2808 2808 2.6E1
2808 2809 -1
2808 3047 -1
2808 3048 -1
2808 3049 -1
2808 3063 -1
2808 3064 -1
2808 3065 -1
2809 2809 2.6E1
2809 2810 -1
2809 3048 -1
2809 3049 -1
2809 3050 -1
2809 3064 -1
2809 3065 -1
2809 3066 -1
2810 2810 2.6E1
2810 2811 -1
2810 3049 -1
2810 3050 -1
2810 3051 -1
2810 3065 -1
2810 3066 -1
2810 3067 -1
2811 2811 2.6E1
2811 2812 -1
2811 3050 -1
2811 3051 -1
2811 3052 -1
2811 3066 -1
2811 3067 -1
2811 3068 -1
2812 2812 2.6E1
2812 2813 -1
2812 3051 -1
2812 3052 -1
2812 3053 -1
2812 3067 -1
2812 3068 -1
2812 3069 -1
2813 2813 2.6E1
2813 2814 -1
2813 3052 -1
2813 3053 -1
2813 3054 -1
2813 3068 -1
2813 3069 -1
2813 3070 -1
2814 2814 2.6E1
2814 2815 -1
2814 3053 -1
2814 3054 -1
2814 3055 -1
2814 3069 -1
2814 3070 -1
2814 3071 -1
2815 2815 2.6E1
2815 2816 -1
2815 3054 -1
2815 3055 -1
2815 3056 -1
2815 3070 -1
2815 3071 -1
2815 3072 -1
2816 2816 2.6E1
2816 3055 -1
2816 3056 -1
2816 3071 -1
2816 3072 -1
2817 2817 2.6E1
2817 2818 -1
2817 2833 -1
2817 2834 -1
2817 3073 -1
2817 3074 -1
2817 3089 -1
2817 3090 -1
2818 2818 2.6E1
2818 2819 -1
2818 2833 -1
2818 2834 -1
2818 2835 -1
2818 3073 -1
2818 3074 -1
2818 3075 -1
2818 3089 -1
2818 3090 -1
2818 3091 -1
2819 2819 2.6E1
2819 2820 -1
2819 2834 -1
2819 2835 -1
2819 2836 -1
2819 3074 -1
2819 3075 -1
2819 3076 -1
2819 3090 -1
2819 3091 -1
2819 3092 -1
2820 2820 2.6E1
2820 2821 -1
2820 2835 -1
2820 2836 -1
2820 2837 -1
2820 3075 -1
2820 3076 -1
2820 3077 -1
2820 3091 -1
2820 3092 -1
2820 3093 -1
2821 2821 2.6E1
2821 2822 -1
2821 2836 -1
2821 2837 -1
2821 2838 -1
2821 3076 -1
2821 3077 -1
2821 3078 -1
2821 3092 -1
2821 3093 -1
2821 3094 -1
2822 2822 2.6E1
2822 2823 -1
2822 2837 -1
2822 2838 -1
2822 2839 -1
2822 3077 -1
2822 3078 -1
2822 3079 -1
2822 3093 -1
2822 3094 -1
2822 3095 -1
2823 2823 2.6E1
2823 2824 -1
2823 2838 -1
2823 2839 -1
2823 2840 -1
2823 3078 -1
2823 3079 -1
2823 3080 -1
2823 3094 -1
2823 3095 -1
2823 3096 -1
2824 2824 2.6E1
2824 2825 -1
2824 2839 -1
2824 2840 -1
2824 2841 -1
2824 3079 -1
2824 3080 -1
2824 3081 -1
2824 3095 -1
2824 3096 -1
2824 3097 -1
2825 2825 2.6E1
2825 2826 -1
2825 2840 -1
2825 2841 -1
2825 2842 -1
2825 3080 -1
2825 3081 -1
2825 3082 -1
2825 3096 -1
2825 3097 -1
2825 3098 -1
2826 2826 2.6E1
2826 2827 -1
2826 2841 -1
2826 2842 -1
2826 2843 -1
2826 3081 -1
2826 3082 -1
2826 3083 -1
2826 3097 -1
2826 3098 -1
2826 3099 -1
2827 2827 2.6E1
2827 2828 -1
2827 2842 -1
2827 2843 -1
2827 2844 -1
2827 3082 -1
2827 3083 -1
2827 3084 -1
2827 3098 -1
2827 3099 -1
2827 3100 -1
2828 2828 2.6E1
2828 2829 -1
2828 2843 -1
2828 2844 -1
2828 2845 -1
2828 3083 -1
2828 3084 -1
2828 3085 -1
2828 3099 -1
2828 3100 -1
2828 3101 -1
2829 2829 2.6E1
2829 2830 -1
2829 2844 -1
2829 2845 -1
2829 2846 -1
2829 3084 -1
2829 3085 -1
2829 3086 -1
2829 3100 -1
2829 3101 -1
2829 3102 -1
2830 2830 2.6E1
2830 2831 -1
2830 2845 -1
2830 2846 -1
2830 2847 -1
2830 3085 -1
2830 3086 -1
2830 3087 -1
2830 3101 -1
2830 3102 -1
2830 3103 -1
2831 2831 2.6E1
2831 2832 -1
2831 2846 -1
2831 2847 -1
2831 2848 -1
2831 3086 -1
2831 3087 -1
2831 3088 -1
2831 3102 -1
2831 3103 -1
2831 3104 -1
2832 2832 2.6E1
2832 2847 -1
2832 2848 -1
2832 3087 -1
2832 3088 -1
2832 3103 -1
2832 3104 -1
2833 2833 2.6E1
2833 2834 -1
2833 2849 -1
2833 2850 -1
2833 3073 -1
2833 3074 -1
2833 3089 -1
2833 3090 -1
2833 3105 -1
2833 3106 -1
2834 2834 2.6E1
2834 2835 -1
2834 2849 -1
2834 2850 -1
2834 2851 -1
2834 3073 -1
2834 3074 -1
2834 3075 -1
2834 3089 -1
2834 3090 -1
2834 3091 -1
2834 3105 -1
2834 3106 -1
2834 3107 -1
2835 2835 2.6E1
2835 2836 -1
2835 2850 -1
2835 2851 -1
2835 2852 -1
2835 3074 -1
2835 3075 -1
2835 3076 -1
2835 3090 -1
2835 3091 -1
2835 3092 -1
2835 3106 -1
2835 3107 -1
2835 3108 -1
2836 2836 2.6E1
2836 2837 -1
2836 2851 -1
2836 2852 -1
2836 2853 -1
2836 3075 -1
2836 3076 -1
2836 3077 -1
2836 3091 -1
2836 3092 -1
2836 3093 -1
2836 3107 -1
2836 3108 -1
2836 3109 -1
2837 2837 2.6E1
2837 2838 -1
2837 2852 -1
2837 2853 -1
2837 2854 -1
2837 3076 -1
2837 3077 -1
2837 3078 -1
2837 3092 -1
2837 3093 -1
2837 3094 -1
2837 3108 -1
2837 3109 -1
2837 3110 -1
2838 2838 2.6E1
2838 2839 -1
2838 2853 -1
2838 2854 -1
2838 2855 -1
2838 3077 -1
2838 3078 -1
2838 3079 -1
2838 3093 -1
2838 3094 -1
2838 3095 -1
2838 3109 -1
2838 3110 -1
2838 3111 -1
2839 2839 2.6E1
2839 2840 -1
2839 2854 -1
2839 2855 -1
2839 2856 -1
2839 3078 -1
2839 3079 -1
2839 3080 -1
2839 3094 -1
2839 3095 -1
2839 3096 -1
2839 3110 -1
2839 3111 -1
2839 3112 -1
2840 2840 2.6E1
2840 2841 -1
2840 2855 -1
2840 2856 -1
2840 2857 -1
2840 3079 -1
2840 3080 -1
2840 3081 -1
2840 3095 -1
2840 3096 -1
2840 3097 -1
2840 3111 -1
2840 3112 -1
2840 3113 -1
2841 2841 2.6E1
2841 2842 -1
2841 2856 -1
2841 2857 -1
2841 2858 -1
2841 3080 -1
2841 3081 -1
2841 3082 -1
2841 3096 -1
2841 3097 -1
2841 3098 -1
2841 3112 -1
2841 3113 -1
2841 3114 -1
2842 2842 2.6E1
2842 2843 -1
2842 2857 -1
2842 2858 -1
2842 2859 -1
2842 3081 -1
2842 3082 -1
2842 3083 -1
2842 3097 -1
2842 3098 -1
2842 3099 -1
2842 3113 -1
2842 3114 -1
2842 3115 -1
2843 2843 2.6E1
2843 2844 -1
2843 2858 -1
2843 2859 -1
2843 2860 -1
2843 3082 -1
2843 3083 -1
2843 3084 -1
2843 3098 -1
2843 3099 -1
2843 3100 -1
2843 3114 -1
2843 3115 -1
2843 3116 -1
2844 2844 2.6E1
2844 2845 -1
2844 2859 -1
2844 2860 -1
2844 2861 -1
2844 3083 -1
2844 3084 -1
2844 3085 -1
2844 3099 -1
2844 3100 -1
2844 3101 -1
2844 3115 -1
2844 3116 -1
2844 3117 -1
2845 2845 2.6E1
2845 2846 -1
2845 2860 -1
2845 2861 -1
2845 2862 -1
2845 3084 -1
2845 3085 -1
2845 3086 -1
2845 3100 -1
2845 3101 -1
2845 3102 -1
2845 3116 -1
2845 3117 -1
2845 3118 -1
2846 2846 2.6E1
2846 2847 -1
2846 2861 -1
2846 2862 -1
2846 2863 -1
2846 3085 -1
2846 3086 -1
2846 3087 -1
2846 3101 -1
2846 3102 -1
2846 3103 -1
2846 3117 -1
2846 3118 -1
2846 3119 -1
2847 2847 2.6E1
2847 2848 -1
2847 2862 -1
2847 2863 -1
2847 2864 -1
2847 3086 -1
2847 3087 -1
2847 3088 -1
2847 3102 -1
2847 3103 -1
2847 3104 -1
2847 3118 -1
2847 3119 -1
2847 3120 -1
2848 2848 2.6E1
2848 2863 -1
2848 2864 -1
2848 3087 -1
2848 3088 -1
2848 3103 -1
2848 3104 -1
2848 3119 -1
2848 3120 -1
2849 2849 2.6E1
2849 2850 -1
2849 2865 -1
2849 2866 -1
2849 3089 -1
2849 3090 -1
2849 3105 -1
2849 3106 -1
2849 3121 -1
2849 3122 -1
2850 2850 2.6E1
2850 2851 -1
2850 2865 -1
2850 2866 -1
2850 2867 -1
2850 3089 -1
2850 3090 -1
2850 3091 -1
2850 3105 -1
2850 3106 -1
2850 3107 -1
2850 3121 -1
2850 3122 -1
2850 3123 -1
2851 2851 2.6E1
2851 2852 -1
2851 2866 -1
2851 2867 -1
2851 2868 -1
2851 3090 -1
2851 3091 -1
2851 3092 -1
2851 3106 -1
2851 3107 -1
2851 3108 -1
2851 3122 -1
2851 3123 -1
2851 3124 -1
2852 2852 2.6E1
2852 2853 -1
2852 2867 -1
2852 2868 -1
2852 2869 -1
2852 3091 -1
2852 3092 -1
2852 3093 -1
2852 3107 -1
2852 3108 -1
2852 3109 -1
2852 3123 -1
2852 3124 -1
2852 3125 -1
2853 2853 2.6E1
2853 2854 -1
2853 2868 -1
2853 2869 -1
2853 2870 -1
2853 3092 -1
2853 3093 -1
2853 3094 -1
2853 3108 -1
2853 3109 -1
2853 3110 -1
2853 3124 -1
2853 3125 -1
2853 3126 -1
2854 2854 2.6E1
2854 2855 -1
2854 2869 -1
2854 2870 -1
2854 2871 -1
2854 3093 -1
2854 3094 -1
2854 3095 -1
2854 3109 -1
2854 3110 -1
2854 3111 -1
2854 3125 -1
2854 3126 -1
2854 3127 -1
2855 2855 2.6E1
2855 2856 -1
2855 2870 -1
2855 2871 -1
2855 2872 -1
2855 3094 -1
2855 3095 -1
2855 3096 -1
2855 3110 -1
2855 3111 -1
2855 3112 -1
2855 3126 -1
2855 3127 -1
2855 3128 -1
2856 2856 2.6E1
2856 2857 -1
2856 2871 -1
2856 2872 -1
2856 2873 -1
2856 3095 -1
2856 3096 -1
2856 3097 -1
2856 3111 -1
2856 3112 -1
2856 3113 -1
2856 3127 -1
2856 3128 -1
2856 3129 -1
2857 2857 2.6E1
2857 2858 -1
2857 2872 -1
2857 2873 -1
2857 2874 -1
2857 3096 -1
2857 3097 -1
2857 3098 -1
2857 3112 -1
2857 3113 -1
2857 3114 -1
2857 3128 -1
2857 3129 -1
2857 3130 -1
2858 2858 2.6E1
2858 2859 -1
2858 2873 -1
2858 2874 -1
2858 2875 -1
2858 3097 -1
2858 3098 -1
2858 3099 -1
2858 3113 -1
2858 3114 -1
2858 3115 -1
2858 3129 -1
2858 3130 -1
2858 3131 -1
2859 2859 2.6E1
2859 2860 -1
2859 2874 -1
2859 2875 -1
2859 2876 -1
2859 3098 -1
2859 3099 -1
2859 3100 -1
2859 3114 -1
2859 3115 -1
2859 3116 -1
2859 3130 -1
2859 3131 -1
2859 3132 -1
2860 2860 2.6E1
2860 2861 -1
2860 2875 -1
2860 2876 -1
2860 2877 -1
2860 3099 -1
2860 3100 -1
2860 3101 -1
2860 3115 -1
2860 3116 -1
2860 3117 -1
2860 3131 -1
2860 3132 -1
2860 3133 -1
2861 2861 2.6E1
2861 2862 -1
2861 2876 -1
2861 2877 -1
2861 2878 -1
2861 3100 -1
2861 3101 -1
2861 3102 -1
2861 3116 -1
2861 3117 -1
2861 3118 -1
2861 3132 -1
2861 3133 -1
2861 3134 -1
2862 2862 2.6E1
2862 2863 -1
2862 2877 -1
2862 2878 -1
2862 2879 -1
2862 3101 -1
2862 3102 -1
2862 3103 -1
2862 3117 -1
2862 3118 -1
2862 3119 -1
2862 3133 -1
2862 3134 -1
2862 3135 -1
2863 2863 2.6E1
2863 2864 -1
2863 2878 -1
2863 2879 -1
2863 2880 -1
2863 3102 -1
2863 3103 -1
2863 3104 -1
2863 3118 -1
2863 3119 -1
2863 3120 -1
2863 3134 -1
2863 3135 -1
2863 3136 -1
2864 2864 2.6E1
2864 2879 -1
2864 2880 -1
2864 3103 -1
2864 3104 -1
2864 3119 -1
2864 3120 -1
2864 3135 -1
2864 3136 -1
2865 2865 2.6E1
2865 2866 -1
2865 2881 -1
2865 2882 -1
2865 3105 -1
2865 3106 -1
2865 3121 -1
2865 3122 -1
2865 3137 -1
2865 3138 -1
2866 2866 2.6E1
2866 2867 -1
2866 2881 -1
2866 2882 -1
2866 2883 -1
2866 3105 -1
2866 3106 -1
2866 3107 -1
2866 3121 -1
2866 3122 -1
2866 3123 -1
2866 3137 -1
2866 3138 -1
2866 3139 -1
2867 2867 2.6E1
2867 2868 -1
2867 2882 -1
2867 2883 -1
2867 2884 -1
2867 3106 -1
2867 3107 -1
2867 3108 -1
2867 3122 -1
2867 3123 -1
2867 3124 -1
2867 3138 -1
2867 3139 -1
2867 3140 -1
2868 2868 2.6E1
2868 2869 -1
2868 2883 -1
2868 2884 -1
2868 2885 -1
2868 3107 -1
2868 3108 -1
2868 3109 -1
2868 3123 -1
2868 3124 -1
2868 3125 -1
2868 3139 -1
2868 3140 -1
2868 3141 -1
2869 2869 2.6E1
2869 2870 -1
2869 2884 -1
2869 2885 -1
2869 2886 -1
2869 3108 -1
2869 3109 -1
2869 3110 -1
2869 3124 -1
2869 3125 -1
2869 3126 -1
2869 3140 -1
2869 3141 -1
2869 3142 -1
2870 2870 2.6E1
2870 2871 -1
2870 2885 -1
2870 2886 -1
2870 2887 -1
2870 3109 -1
2870 3110 -1
2870 3111 -1
2870 3125 -1
2870 3126 -1
2870 3127 -1
2870 3141 -1
2870 3142 -1
2870 3143 -1
2871 2871 2.6E1
2871 2872 -1
2871 2886 -1
2871 2887 -1
2871 2888 -1
2871 3110 -1
2871 3111 -1
2871 3112 -1
2871 3126 -1
2871 3127 -1
2871 3128 -1
2871 3142 -1
2871 3143 -1
2871 3144 -1
2872 2872 2.6E1
2872 2873 -1
2872 2887 -1
2872 2888 -1
2872 2889 -1
2872 3111 -1
2872 3112 -1
2872 3113 -1
2872 3127 -1
2872 3128 -1
2872 3129 -1
2872 3143 -1
2872 3144 -1
2872 3145 -1
2873 2873 2.6E1
2873 2874 -1
2873 2888 -1
2873 2889 -1
2873 2890 -1
2873 3112 -1
2873 3113 -1
2873 3114 -1
2873 3128 -1
2873 3129 -1
2873 3130 -1
2873 3144 -1
2873 3145 -1
2873 3146 -1
2874 2874 2.6E1
2874 2875 -1
2874 2889 -1
2874 2890 -1
2874 2891 -1
2874 3113 -1
2874 3114 -1
2874 3115 -1
2874 3129 -1
2874 3130 -1
2874 3131 -1
2874 3145 -1
2874 3146 -1
2874 3147 -1
2875 2875 2.6E1
2875 2876 -1
2875 2890 -1
2875 2891 -1
2875 2892 -1
2875 3114 -1
2875 3115 -1
2875 3116 -1
2875 3130 -1
2875 3131 -1
2875 3132 -1
2875 3146 -1
2875 3147 -1
2875 3148 -1
2876 2876 2.6E1
2876 2877 -1
2876 2891 -1
2876 2892 -1
2876 2893 -1
2876 3115 -1
2876 3116 -1
2876 3117 -1
2876 3131 -1
2876 3132 -1
2876 3133 -1
2876 3147 -1
2876 3148 -1
2876 3149 -1
2877 2877 2.6E1
2877 2878 -1
2877 2892 -1
2877 2893 -1
2877 2894 -1
2877 3116 -1
2877 3117 -1
2877 3118 -1
2877 3132 -1
2877 3133 -1
2877 3134 -1
2877 3148 -1
2877 3149 -1
2877 3150 -1
2878 2878 2.6E1
2878 2879 -1
2878 2893 -1
2878 2894 -1
2878 2895 -1
2878 3117 -1
2878 3118 -1
2878 3119 -1
2878 3133 -1
2878 3134 -1
2878 3135 -1
2878 3149 -1
2878 3150 -1
2878 3151 -1
2879 2879 2.6E1
2879 2880 -1
2879 2894 -1
2879 2895 -1
2879 2896 -1
2879 3118 -1
2879 3119 -1
2879 3120 -1
2879 3134 -1
2879 3135 -1
2879 3136 -1
2879 3150 -1
2879 3151 -1
2879 3152 -1
2880 2880 2.6E1
2880 2895 -1
2880 2896 -1
2880 3119 -1
2880 3120 -1
2880 3135 -1
2880 3136 -1
2880 3151 -1
2880 3152 -1
2881 2881 2.6E1
2881 2882 -1
2881 2897 -1
2881 2898 -1
2881 3121 -1
2881 3122 -1
2881 3137 -1
2881 3138 -1
2881 3153 -1
2881 3154 -1
2882 2882 2.6E1
2882 2883 -1
2882 2897 -1
2882 2898 -1
2882 2899 -1
2882 3121 -1
2882 3122 -1
2882 3123 -1
2882 3137 -1
2882 3138 -1
2882 3139 -1
2882 3153 -1
2882 3154 -1
2882 3155 -1
2883 2883 2.6E1
2883 2884 -1
2883 2898 -1
2883 2899 -1
2883 2900 -1
2883 3122 -1
2883 3123 -1
2883 3124 -1
2883 3138 -1
2883 3139 -1
2883 3140 -1
2883 3154 -1
2883 3155 -1
2883 3156 -1
2884 2884 2.6E1
2884 2885 -1
2884 2899 -1
2884 2900 -1
2884 2901 -1
2884 3123 -1
2884 3124 -1
2884 3125 -1
2884 3139 -1
2884 3140 -1
2884 3141 -1
2884 3155 -1
2884 3156 -1
2884 3157 -1
2885 2885 2.6E1
2885 2886 -1
2885 2900 -1
2885 2901 -1
2885 2902 -1
2885 3124 -1
2885 3125 -1
2885 3126 -1
2885 3140 -1
2885 3141 -1
2885 3142 -1
2885 3156 -1
2885 3157 -1
2885 3158 -1
2886 2886 2.6E1
2886 2887 -1
2886 2901 -1
2886 2902 -1
2886 2903 -1
2886 3125 -1
2886 3126 -1
2886 3127 -1
2886 3141 -1
2886 3142 -1
2886 3143 -1
2886 3157 -1
2886 3158 -1
2886 3159 -1
2887 2887 2.6E1
2887 2888 -1
2887 2902 -1
2887 2903 -1
2887 2904 -1
2887 3126 -1
2887 3127 -1
2887 3128 -1
2887 3142 -1
2887 3143 -1
2887 3144 -1
2887 3158 -1
2887 3159 -1
2887 3160 -1
2888 2888 2.6E1
2888 2889 -1
2888 2903 -1
2888 2904 -1
2888 2905 -1
2888 3127 -1
2888 3128 -1
2888 3129 -1
2888 3143 -1
2888 3144 -1
2888 3145 -1
2888 3159 -1
2888 3160 -1
2888 3161 -1
2889 2889 2.6E1
2889 2890 -1
2889 2904 -1
2889 2905 -1
2889 2906 -1
2889 3128 -1
2889 3129 -1
2889 3130 -1
2889 3144 -1
2889 3145 -1
2889 3146 -1
2889 3160 -1
2889 3161 -1
2889 3162 -1
2890 2890 2.6E1
2890 2891 -1
2890 2905 -1
2890 2906 -1
2890 2907 -1
2890 3129 -1
2890 3130 -1
2890 3131 -1
2890 3145 -1
2890 3146 -1
2890 3147 -1
2890 3161 -1
2890 3162 -1
2890 3163 -1
2891 2891 2.6E1
2891 2892 -1
2891 2906 -1
2891 2907 -1
2891 2908 -1
2891 3130 -1
2891 3131 -1
2891 3132 -1
2891 3146 -1
2891 3147 -1
2891 3148 -1
2891 3162 -1
2891 3163 -1
2891 3164 -1
2892 2892 2.6E1
2892 2893 -1
2892 2907 -1
2892 2908 -1
2892 2909 -1
2892 3131 -1
2892 3132 -1
2892 3133 -1
2892 3147 -1
2892 3148 -1
2892 3149 -1
2892 3163 -1
2892 3164 -1
2892 3165 -1
2893 2893 2.6E1
2893 2894 -1
2893 2908 -1
2893 2909 -1
2893 2910 -1
2893 3132 -1
2893 3133 -1
2893 3134 -1
2893 3148 -1
2893 3149 -1
2893 3150 -1
2893 3164 -1
2893 3165 -1
2893 3166 -1
2894 2894 2.6E1
2894 2895 -1
2894 2909 -1
2894 2910 -1
2894 2911 -1
2894 3133 -1
2894 3134 -1
2894 3135 -1
2894 3149 -1
2894 3150 -1
2894 3151 -1
2894 3165 -1
2894 3166 -1
2894 3167 -1
2895 2895 2.6E1
2895 2896 -1
2895 2910 -1
2895 2911 -1
2895 2912 -1
2895 3134 -1
2895 3135 -1
2895 3136 -1
2895 3150 -1
2895 3151 -1
2895 3152 -1
2895 3166 -1
2895 3167 -1
2895 3168 -1
2896 2896 2.6E1
2896 2911 -1
2896 2912 -1
2896 3135 -1
2896 3136 -1
2896 3151 -1
2896 3152 -1
2896 3167 -1
2896 3168 -1
2897 2897 2.6E1
2897 2898 -1
2897 2913 -1
2897 2914 -1
2897 3137 -1
2897 3138 -1
2897 3153 -1
2897 3154 -1
2897 3169 -1
2897 3170 -1
2898 2898 2.6E1
2898 2899 -1
2898 2913 -1
2898 2914 -1
2898 2915 -1
2898 3137 -1
2898 3138 -1
2898 3139 -1
2898 3153 -1
2898 3154 -1
2898 3155 -1
2898 3169 -1
2898 3170 -1
2898 3171 -1
2899 2899 2.6E1
2899 2900 -1
2899 2914 -1
2899 2915 -1
2899 2916 -1
2899 3138 -1
2899 3139 -1
2899 3140 -1
2899 3154 -1
2899 3155 -1
2899 3156 -1
2899 3170 -1
2899 3171 -1
2899 3172 -1
2900 2900 2.6E1
2900 2901 -1
2900 2915 -1
2900 2916 -1
2900 2917 -1
2900 3139 -1
2900 3140 -1
2900 3141 -1
2900 3155 -1
2900 3156 -1
2900 3157 -1
2900 3171 -1
2900 3172 -1
2900 3173 -1
2901 2901 2.6E1
2901 2902 -1
2901 2916 -1
2901 2917 -1
2901 2918 -1
2901 3140 -1
2901 3141 -1
2901 3142 -1
2901 3156 -1
2901 3157 -1
2901 3158 -1
2901 3172 -1
2901 3173 -1
2901 3174 -1
2902 2902 2.6E1
2902 2903 -1
2902 2917 -1
2902 2918 -1
2902 2919 -1
2902 3141 -1
2902 3142 -1
2902 3143 -1
2902 3157 -1
2902 3158 -1
2902 3159 -1
2902 3173 -1
2902 3174 -1
2902 3175 -1
2903 2903 2.6E1
2903 2904 -1
2903 2918 -1
2903 2919 -1
2903 2920 -1
2903 3142 -1
2903 3143 -1
2903 3144 -1
2903 3158 -1
2903 3159 -1
2903 3160 -1
2903 3174 -1
2903 3175 -1
2903 3176 -1
2904 2904 2.6E1
2904 2905 -1
2904 2919 -1
2904 2920 -1
2904 2921 -1
2904 3143 -1
2904 3144 -1
2904 3145 -1
2904 3159 -1
2904 3160 -1
2904 3161 -1
2904 3175 -1
2904 3176 -1
2904 3177 -1
2905 2905 2.6E1
2905 2906 -1
2905 2920 -1
2905 2921 -1
2905 2922 -1
2905 3144 -1
2905 3145 -1
2905 3146 -1
2905 3160 -1
2905 3161 -1
2905 3162 -1
2905 3176 -1
2905 3177 -1
2905 3178 -1
2906 2906 2.6E1
2906 2907 -1
2906 2921 -1
2906 2922 -1
2906 2923 -1
2906 3145 -1
2906 3146 -1
2906 3147 -1
2906 3161 -1
2906 3162 -1
2906 3163 -1
2906 3177 -1
2906 3178 -1
2906 3179 -1
2907 2907 2.6E1
2907 2908 -1
2907 2922 -1
2907 2923 -1
2907 2924 -1
2907 3146 -1
2907 3147 -1
2907 3148 -1
2907 3162 -1
2907 3163 -1
2907 3164 -1
2907 3178 -1
2907 3179 -1
2907 3180 -1
2908 2908 2.6E1
2908 2909 -1
2908 2923 -1
2908 2924 -1
2908 2925 -1
2908 3147 -1
2908 3148 -1
2908 3149 -1
2908 3163 -1
2908 3164 -1
2908 3165 -1
2908 3179 -1
2908 3180 -1
2908 3181 -1
2909 2909 2.6E1
2909 2910 -1
2909 2924 -1
2909 2925 -1
2909 2926 -1
2909 3148 -1
2909 3149 -1
2909 3150 -1
2909 3164 -1
2909 3165 -1
2909 3166 -1
2909 3180 -1
2909 3181 -1
2909 3182 -1
2910 2910 2.6E1
2910 2911 -1
2910 2925 -1
2910 2926 -1
2910 2927 -1
2910 3149 -1
2910 3150 -1
2910 3151 -1
2910 3165 -1
2910 3166 -1
2910 3167 -1
2910 3181 -1
2910 3182 -1
2910 3183 -1
2911 2911 2.6E1
2911 2912 -1
2911 2926 -1
2911 2927 -1
2911 2928 -1
2911 3150 -1
2911 3151 -1
2911 3152 -1
2911 3166 -1
2911 3167 -1
2911 3168 -1
2911 3182 -1
2911 3183 -1
2911 3184 -1
2912 2912 2.6E1
2912 2927 -1
2912 2928 -1
2912 3151 -1
2912 3152 -1
2912 3167 -1
2912 3168 -1
2912 3183 -1
2912 3184 -1
2913 2913 2.6E1
2913 2914 -1
2913 2929 -1
2913 2930 -1
2913 3153 -1
2913 3154 -1
2913 3169 -1
2913 3170 -1
2913 3185 -1
2913 3186 -1
2914 2914 2.6E1
2914 2915 -1
2914 2929 -1
2914 2930 -1
2914 2931 -1
2914 3153 -1
2914 3154 -1
2914 3155 -1
2914 3169 -1
2914 3170 -1
2914 3171 -1
2914 3185 -1
2914 3186 -1
2914 3187 -1
2915 2915 2.6E1
2915 2916 -1
2915 2930 -1
2915 2931 -1
2915 2932 -1
2915 3154 -1
2915 3155 -1
2915 3156 -1
2915 3170 -1
2915 3171 -1
2915 3172 -1
2915 3186 -1
2915 3187 -1
2915 3188 -1
2916 2916 2.6E1
2916 2917 -1
2916 2931 -1
2916 2932 -1
2916 2933 -1
2916 3155 -1
2916 3156 -1
2916 3157 -1
2916 3171 -1
2916 3172 -1
2916 3173 -1
2916 3187 -1
2916 3188 -1
2916 3189 -1
2917 2917 2.6E1
2917 2918 -1
2917 2932 -1
2917 2933 -1
2917 2934 -1
2917 3156 -1
2917 3157 -1
2917 3158 -1
2917 3172 -1
2917 3173 -1
2917 3174 -1
2917 3188 -1
2917 3189 -1
2917 3190 -1
2918 2918 2.6E1
2918 2919 -1
2918 2933 -1
2918 2934 -1
2918 2935 -1
2918 3157 -1
2918 3158 -1
2918 3159 -1
2918 3173 -1
2918 3174 -1
2918 3175 -1
2918 3189 -1
2918 3190 -1
2918 3191 -1
2919 2919 2.6E1
2919 2920 -1
2919 2934 -1
2919 2935 -1
2919 2936 -1
2919 3158 -1
2919 3159 -1
2919 3160 -1
2919 3174 -1
2919 3175 -1
2919 3176 -1
2919 3190 -1
2919 3191 -1
2919 3192 -1
2920 2920 2.6E1
2920 2921 -1
2920 2935 -1
2920 2936 -1
2920 2937 -1
2920 3159 -1
2920 3160 -1
2920 3161 -1
2920 3175 -1
2920 3176 -1
2920 3177 -1
2920 3191 -1
2920 3192 -1
2920 3193 -1
2921 2921 2.6E1
2921 2922 -1
2921 2936 -1
2921 2937 -1
2921 2938 -1
2921 3160 -1
2921 3161 -1
2921 3162 -1
2921 3176 -1
2921 3177 -1
2921 3178 -1
2921 3192 -1
2921 3193 -1
2921 3194 -1
2922 2922 2.6E1
2922 2923 -1
2922 2937 -1
2922 2938 -1
2922 2939 -1
2922 3161 -1
2922 3162 -1
2922 3163 -1
2922 3177 -1
2922 3178 -1
2922 3179 -1
2922 3193 -1
2922 3194 -1
2922 3195 -1
2923 2923 2.6E1
2923 2924 -1
2923 2938 -1
2923 2939 -1
2923 2940 -1
2923 3162 -1
2923 3163 -1
2923 3164 -1
2923 3178 -1
2923 3179 -1
2923 3180 -1
2923 3194 -1
2923 3195 -1
2923 3196 -1
2924 2924 2.6E1
2924 2925 -1
2924 2939 -1
2924 2940 -1
2924 2941 -1
2924 3163 -1
2924 3164 -1
2924 3165 -1
2924 3179 -1
2924 3180 -1
2924 3181 -1
2924 3195 -1
2924 3196 -1
2924 3197 -1
2925 2925 2.6E1
2925 2926 -1
2925 2940 -1
2925 2941 -1
2925 2942 -1
2925 3164 -1
2925 3165 -1
2925 3166 -1
2925 3180 -1
2925 3181 -1
2925 3182 -1
2925 3196 -1
2925 3197 -1
2925 3198 -1
2926 2926 2.6E1
2926 2927 -1
2926 2941 -1
2926 2942 -1
2926 2943 -1
2926 3165 -1
2926 3166 -1
2926 3167 -1
2926 3181 -1
2926 3182 -1
2926 3183 -1
2926 3197 -1
2926 3198 -1
2926 3199 -1
2927 2927 2.6E1
2927 2928 -1
2927 2942 -1
2927 2943 -1
2927 2944 -1
2927 3166 -1
2927 3167 -1
2927 3168 -1
2927 3182 -1
2927 3183 -1
2927 3184 -1
2927 3198 -1
2927 3199 -1
2927 3200 -1
2928 2928 2.6E1
2928 2943 -1
2928 2944 -1
2928 3167 -1
2928 3168 -1
2928 3183 -1
2928 3184 -1
2928 3199 -1
2928 3200 -1
2929 2929 2.6E1
2929 2930 -1
2929 2945 -1
2929 2946 -1
2929 3169 -1
2929 3170 -1
2929 3185 -1
2929 3186 -1
2929 3201 -1
2929 3202 -1
2930 2930 2.6E1
2930 2931 -1
2930 2945 -1
2930 2946 -1
2930 2947 -1
2930 3169 -1
2930 3170 -1
2930 3171 -1
2930 3185 -1
2930 3186 -1
2930 3187 -1
2930 3201 -1
2930 3202 -1
2930 3203 -1
2931 2931 2.6E1
2931 2932 -1
2931 2946 -1
2931 2947 -1
2931 2948 -1
2931 3170 -1
2931 3171 -1
2931 3172 -1
2931 3186 -1
2931 3187 -1
2931 3188 -1
2931 3202 -1
2931 3203 -1
2931 3204 -1
2932 2932 2.6E1
2932 2933 -1
2932 2947 -1
2932 2948 -1
2932 2949 -1
2932 3171 -1
2932 3172 -1
2932 3173 -1
2932 3187 -1
2932 3188 -1
2932 3189 -1
2932 3203 -1
2932 3204 -1
2932 3205 -1
2933 2933 2.6E1
2933 2934 -1
2933 2948 -1
2933 2949 -1
2933 2950 -1
2933 3172 -1
2933 3173 -1
2933 3174 -1
2933 3188 -1
2933 3189 -1
2933 3190 -1
2933 3204 -1
2933 3205 -1
2933 3206 -1
2934 2934 2.6E1
2934 2935 -1
2934 2949 -1
2934 2950 -1
2934 2951 -1
2934 3173 -1
2934 3174 -1
2934 3175 -1
2934 3189 -1
2934 3190 -1
2934 3191 -1
2934 3205 -1
2934 3206 -1
2934 3207 -1
2935 2935 2.6E1
2935 2936 -1
2935 2950 -1
2935 2951 -1
2935 2952 -1
2935 3174 -1
2935 3175 -1
2935 3176 -1
2935 3190 -1
2935 3191 -1
2935 3192 -1
2935 3206 -1
2935 3207 -1
2935 3208 -1
2936 2936 2.6E1
2936 2937 -1
2936 2951 -1
2936 2952 -1
2936 2953 -1
2936 3175 -1
2936 3176 -1
2936 3177 -1
2936 3191 -1
2936 3192 -1
2936 3193 -1
2936 3207 -1
2936 3208 -1
2936 3209 -1
2937 2937 2.6E1
2937 2938 -1
2937 2952 -1
2937 2953 -1
2937 2954 -1
2937 3176 -1
2937 3177 -1
2937 3178 -1
2937 3192 -1
2937 3193 -1
2937 3194 -1
2937 3208 -1
2937 3209 -1
2937 3210 -1
2938 2938 2.6E1
2938 2939 -1
2938 2953 -1
2938 2954 -1
2938 2955 -1
2938 3177 -1
2938 3178 -1
2938 3179 -1
2938 3193 -1
2938 3194 -1
2938 3195 -1
2938 3209 -1
2938 3210 -1
2938 3211 -1
2939 2939 2.6E1
2939 2940 -1
2939 2954 -1
2939 2955 -1
2939 2956 -1
2939 3178 -1
2939 3179 -1
2939 3180 -1
2939 3194 -1
2939 3195 -1
2939 3196 -1
2939 3210 -1
2939 3211 -1
2939 3212 -1
2940 2940 2.6E1
2940 2941 -1
2940 2955 -1
2940 2956 -1
2940 2957 -1
2940 3179 -1
2940 3180 -1
2940 3181 -1
2940 3195 -1
2940 3196 -1
2940 3197 -1
2940 3211 -1
2940 3212 -1
2940 3213 -1
2941 2941 2.6E1
2941 2942 -1
2941 2956 -1
2941 2957 -1
2941 2958 -1
2941 3180 -1
2941 3181 -1
2941 3182 -1
2941 3196 -1
2941 3197 -1
2941 3198 -1
2941 3212 -1
2941 3213 -1
2941 3214 -1
2942 2942 2.6E1
2942 2943 -1
2942 2957 -1
2942 2958 -1
2942 2959 -1
2942 3181 -1
2942 3182 -1
2942 3183 -1
2942 3197 -1
2942 3198 -1
2942 3199 -1
2942 3213 -1
2942 3214 -1
2942 3215 -1
2943 2943 2.6E1
2943 2944 -1
2943 2958 -1
2943 2959 -1
2943 2960 -1
2943 3182 -1
2943 3183 -1
2943 3184 -1
2943 3198 -1
2943 3199 -1
2943 3200 -1
2943 3214 -1
2943 3215 -1
2943 3216 -1
2944 2944 2.6E1
2944 2959 -1
2944 2960 -1
2944 3183 -1
2944 3184 -1
2944 3199 -1
2944 3200 -1
2944 3215 -1
2944 3216 -1
2945 2945 2.6E1
2945 2946 -1
2945 2961 -1
2945 2962 -1
2945 3185 -1
2945 3186 -1
2945 3201 -1
2945 3202 -1
2945 3217 -1
2945 3218 -1
2946 2946 2.6E1
2946 2947 -1
2946 2961 -1
2946 2962 -1
2946 2963 -1
2946 3185 -1
2946 3186 -1
2946 3187 -1
2946 3201 -1
2946 3202 -1
2946 3203 -1
2946 3217 -1
2946 3218 -1
2946 3219 -1
2947 2947 2.6E1
2947 2948 -1
2947 2962 -1
2947 2963 -1
2947 2964 -1
2947 3186 -1
2947 3187 -1
2947 3188 -1
2947 3202 -1
2947 3203 -1
2947 3204 -1
2947 3218 -1
2947 3219 -1
2947 3220 -1
2948 2948 2.6E1
2948 2949 -1
2948 2963 -1
2948 2964 -1
2948 2965 -1
2948 3187 -1
2948 3188 -1
2948 3189 -1
2948 3203 -1
2948 3204 -1
2948 3205 -1
2948 3219 -1
2948 3220 -1
2948 3221 -1
2949 2949 2.6E1
2949 2950 -1
2949 2964 -1
2949 2965 -1
2949 2966 -1
2949 3188 -1
2949 3189 -1
2949 3190 -1
2949 3204 -1
2949 3205 -1
2949 3206 -1
2949 3220 -1
2949 3221 -1
2949 3222 -1
2950 2950 2.6E1
2950 2951 -1
2950 2965 -1
2950 2966 -1
2950 2967 -1
2950 3189 -1
2950 3190 -1
2950 3191 -1
2950 3205 -1
2950 3206 -1
2950 3207 -1
2950 3221 -1
2950 3222 -1
2950 3223 -1
2951 2951 2.6E1
2951 2952 -1
2951 2966 -1
2951 2967 -1
2951 2968 -1
2951 3190 -1
2951 3191 -1
2951 3192 -1
2951 3206 -1
2951 3207 -1
2951 3208 -1
2951 3222 -1
2951 3223 -1
2951 3224 -1
2952 2952 2.6E1
2952 2953 -1
2952 2967 -1
2952 2968 -1
2952 2969 -1
2952 3191 -1
2952 3192 -1
2952 3193 -1
2952 3207 -1
2952 3208 -1
2952 3209 -1
2952 3223 -1
2952 3224 -1
2952 3225 -1
2953 2953 2.6E1
2953 2954 -1
2953 2968 -1
2953 2969 -1
2953 2970 -1
2953 3192 -1
2953 3193 -1
2953 3194 -1
2953 3208 -1
2953 3209 -1
2953 3210 -1
2953 3224 -1
2953 3225 -1
2953 3226 -1
2954 2954 2.6E1
2954 2955 -1
2954 2969 -1
2954 2970 -1
2954 2971 -1
2954 3193 -1
2954 3194 -1
2954 3195 -1
2954 3209 -1
2954 3210 -1
2954 3211 -1
2954 3225 -1
2954 3226 -1
2954 3227 -1
2955 2955 2.6E1
2955 2956 -1
2955 2970 -1
2955 2971 -1
2955 2972 -1
2955 3194 -1
2955 3195 -1
2955 3196 -1
2955 3210 -1
2955 3211 -1
2955 3212 -1
2955 3226 -1
2955 3227 -1
2955 3228 -1
2956 2956 2.6E1
2956 2957 -1
2956 2971 -1
2956 2972 -1
2956 2973 -1
2956 3195 -1
2956 3196 -1
2956 3197 -1
2956 3211 -1
2956 3212 -1
2956 3213 -1
2956 3227 -1
2956 3228 -1
2956 3229 -1
2957 2957 2.6E1
2957 2958 -1
2957 2972 -1
2957 2973 -1
2957 2974 -1
2957 3196 -1
2957 3197 -1
2957 3198 -1
2957 3212 -1
2957 3213 -1
2957 3214 -1
2957 3228 -1
2957 3229 -1
2957 3230 -1
2958 2958 2.6E1
2958 2959 -1
2958 2973 -1
2958 2974 -1
2958 2975 -1
2958 3197 -1
2958 3198 -1
2958 3199 -1
2958 3213 -1
2958 3214 -1
2958 3215 -1
2958 3229 -1
2958 3230 -1
2958 3231 -1
2959 2959 2.6E1
2959 2960 -1
2959 2974 -1
2959 2975 -1
2959 2976 -1
2959 3198 -1
2959 3199 -1
2959 3200 -1
2959 3214 -1
2959 3215 -1
2959 3216 -1
2959 3230 -1
2959 3231 -1
2959 3232 -1
2960 2960 2.6E1
2960 2975 -1
2960 2976 -1
2960 3199 -1
2960 3200 -1
2960 3215 -1
2960 3216 -1
2960 3231 -1
2960 3232 -1
2961 2961 2.6E1
2961 2962 -1
2961 2977 -1
2961 2978 -1
2961 3201 -1
2961 3202 -1
2961 3217 -1
2961 3218 -1
2961 3233 -1
2961 3234 -1
2962 2962 2.6E1
2962 2963 -1
2962 2977 -1
2962 2978 -1
2962 2979 -1
2962 3201 -1
2962 3202 -1
2962 3203 -1
2962 3217 -1
2962 3218 -1
2962 3219 -1
2962 3233 -1
2962 3234 -1
2962 3235 -1
2963 2963 2.6E1
2963 2964 -1
2963 2978 -1
2963 2979 -1
2963 2980 -1
2963 3202 -1
2963 3203 -1
2963 3204 -1
2963 3218 -1
2963 3219 -1
2963 3220 -1
2963 3234 -1
2963 3235 -1
2963 3236 -1
2964 2964 2.6E1
2964 2965 -1
2964 2979 -1
2964 2980 -1
2964 2981 -1
2964 3203 -1
2964 3204 -1
2964 3205 -1
2964 3219 -1
2964 3220 -1
2964 3221 -1
2964 3235 -1
2964 3236 -1
2964 3237 -1
2965 2965 2.6E1
2965 2966 -1
2965 2980 -1
2965 2981 -1
2965 2982 -1
2965 3204 -1
2965 3205 -1
2965 3206 -1
2965 3220 -1
2965 3221 -1
2965 3222 -1
2965 3236 -1
2965 3237 -1
2965 3238 -1
2966 2966 2.6E1
2966 2967 -1
2966 2981 -1
2966 2982 -1
2966 2983 -1
2966 3205 -1
2966 3206 -1
2966 3207 -1
2966 3221 -1
2966 3222 -1
2966 3223 -1
2966 3237 -1
2966 3238 -1
2966 3239 -1
2967 2967 2.6E1
2967 2968 -1
2967 2982 -1
2967 2983 -1
2967 2984 -1
2967 3206 -1
2967 3207 -1
2967 3208 -1
2967 3222 -1
2967 3223 -1
2967 3224 -1
2967 3238 -1
2967 3239 -1
2967 3240 -1
2968 2968 2.6E1
2968 2969 -1
2968 2983 -1
2968 2984 -1
2968 2985 -1
2968 3207 -1
2968 3208 -1
2968 3209 -1
2968 3223 -1
2968 3224 -1
2968 3225 -1
2968 3239 -1
2968 3240 -1
2968 3241 -1
2969 2969 2.6E1
2969 2970 -1
2969 2984 -1
2969 2985 -1
2969 2986 -1
2969 3208 -1
2969 3209 -1
2969 3210 -1
2969 3224 -1
2969 3225 -1
2969 3226 -1
2969 3240 -1
2969 3241 -1
2969 3242 -1
2970 2970 2.6E1
2970 2971 -1
2970 2985 -1
2970 2986 -1
2970 2987 -1
2970 3209 -1
2970 3210 -1
2970 3211 -1
2970 3225 -1
2970 3226 -1
2970 3227 -1
2970 3241 -1
2970 3242 -1
2970 3243 -1
2971 2971 2.6E1
2971 2972 -1
2971 2986 -1
2971 2987 -1
2971 2988 -1
2971 3210 -1
2971 3211 -1
2971 3212 -1
2971 3226 -1
2971 3227 -1
2971 3228 -1
2971 3242 -1
2971 3243 -1
2971 3244 -1
2972 2972 2.6E1
2972 2973 -1
2972 2987 -1
2972 2988 -1
2972 2989 -1
2972 3211 -1
2972 3212 -1
2972 3213 -1
2972 3227 -1
2972 3228 -1
2972 3229 -1
2972 3243 -1
2972 3244 -1
2972 3245 -1
2973 2973 2.6E1
2973 2974 -1
2973 2988 -1
2973 2989 -1
2973 2990 -1
2973 3212 -1
2973 3213 -1
2973 3214 -1
2973 3228 -1
2973 3229 -1
2973 3230 -1
2973 3244 -1
2973 3245 -1
2973 3246 -1
2974 2974 2.6E1
2974 2975 -1
2974 2989 -1
2974 2990 -1
2974 2991 -1
2974 3213 -1
2974 3214 -1
2974 3215 -1
2974 3229 -1
2974 3230 -1
2974 3231 -1
2974 3245 -1
2974 3246 -1
2974 3247 -1
2975 2975 2.6E1
2975 2976 -1
2975 2990 -1
2975 2991 -1
2975 2992 -1
2975 3214 -1
2975 3215 -1
2975 3216 -1
2975 3230 -1
2975 3231 -1
2975 3232 -1
2975 3246 -1
2975 3247 -1
2975 3248 -1
2976 2976 2.6E1
2976 2991 -1
2976 2992 -1
2976 3215 -1
2976 3216 -1
2976 3231 -1
2976 3232 -1
2976 3247 -1
2976 3248 -1
2977 2977 2.6E1
2977 2978 -1
2977 2993 -1
2977 2994 -1
2977 3217 -1
2977 3218 -1
2977 3233 -1
2977 3234 -1
2977 3249 -1
2977 3250 -1
2978 2978 2.6E1
2978 2979 -1
2978 2993 -1
2978 2994 -1
2978 2995 -1
2978 3217 -1
2978 3218 -1
2978 3219 -1
2978 3233 -1
2978 3234 -1
2978 3235 -1
2978 3249 -1
2978 3250 -1
2978 3251 -1
2979 2979 2.6E1
2979 2980 -1
2979 2994 -1
2979 2995 -1
2979 2996 -1
2979 3218 -1
2979 3219 -1
2979 3220 -1
2979 3234 -1
2979 3235 -1
2979 3236 -1
2979 3250 -1
2979 3251 -1
2979 3252 -1
2980 2980 2.6E1
2980 2981 -1
2980 2995 -1
2980 2996 -1
2980 2997 -1
2980 3219 -1
2980 3220 -1
2980 3221 -1
2980 3235 -1
2980 3236 -1
2980 3237 -1
2980 3251 -1
2980 3252 -1
2980 3253 -1
2981 2981 2.6E1
2981 2982 -1
2981 2996 -1
2981 2997 -1
2981 2998 -1
2981 3220 -1
2981 3221 -1
2981 3222 -1
2981 3236 -1
2981 3237 -1
2981 3238 -1
2981 3252 -1
2981 3253 -1
2981 3254 -1
2982 2982 2.6E1
2982 2983 -1
2982 2997 -1
2982 2998 -1
2982 2999 -1
2982 3221 -1
2982 3222 -1
2982 3223 -1
2982 3237 -1
2982 3238 -1
2982 3239 -1
2982 3253 -1
2982 3254 -1
2982 3255 -1
2983 2983 2.6E1
2983 2984 -1
2983 2998 -1
2983 2999 -1
2983 3000 -1
2983 3222 -1
2983 3223 -1
2983 3224 -1
2983 3238 -1
2983 3239 -1
2983 3240 -1
2983 3254 -1
2983 3255 -1
2983 3256 -1
2984 2984 2.6E1
2984 2985 -1
2984 2999 -1
2984 3000 -1
2984 3001 -1
2984 3223 -1
2984 3224 -1
2984 3225 -1
2984 3239 -1
2984 3240 -1
2984 3241 -1
2984 3255 -1
2984 3256 -1
2984 3257 -1
2985 2985 2.6E1
2985 2986 -1
2985 3000 -1
2985 3001 -1
2985 3002 -1
2985 3224 -1
2985 3225 -1
2985 3226 -1
2985 3240 -1
2985 3241 -1
2985 3242 -1
2985 3256 -1
2985 3257 -1
2985 3258 -1
2986 2986 2.6E1
2986 2987 -1
2986 3001 -1
2986 3002 -1
2986 3003 -1
2986 3225 -1
2986 3226 -1
2986 3227 -1
2986 3241 -1
2986 3242 -1
2986 3243 -1
2986 3257 -1
2986 3258 -1
2986 3259 -1
2987 2987 2.6E1
2987 2988 -1
2987 3002 -1
2987 3003 -1
2987 3004 -1
2987 3226 -1
2987 3227 -1
2987 3228 -1
2987 3242 -1
2987 3243 -1
2987 3244 -1
2987 3258 -1
2987 3259 -1
2987 3260 -1
2988 2988 2.6E1
2988 2989 -1
2988 3003 -1
2988 3004 -1
2988 3005 -1
2988 3227 -1
2988 3228 -1
2988 3229 -1
2988 3243 -1
2988 3244 -1
2988 3245 -1
2988 3259 -1
2988 3260 -1
2988 3261 -1
2989 2989 2.6E1
2989 2990 -1
2989 3004 -1
2989 3005 -1
2989 3006 -1
2989 3228 -1
2989 3229 -1
2989 3230 -1
2989 3244 -1
2989 3245 -1
2989 3246 -1
2989 3260 -1
2989 3261 -1
2989 3262 -1
2990 2990 2.6E1
2990 2991 -1
2990 3005 -1
2990 3006 -1
2990 3007 -1
2990 3229 -1
2990 3230 -1
2990 3231 -1
2990 3245 -1
2990 3246 -1
2990 3247 -1
2990 3261 -1
2990 3262 -1
2990 3263 -1
2991 2991 2.6E1
2991 2992 -1
2991 3006 -1
2991 3007 -1
2991 3008 -1
2991 3230 -1
2991 3231 -1
2991 3232 -1
2991 3246 -1
2991 3247 -1
2991 3248 -1
2991 3262 -1
2991 3263 -1
2991 3264 -1
2992 2992 2.6E1
2992 3007 -1
2992 3008 -1
2992 3231 -1
2992 3232 -1
2992 3247 -1
2992 3248 -1
2992 3263 -1
2992 3264 -1
2993 2993 2.6E1
2993 2994 -1
2993 3009 -1
2993 3010 -1
2993 3233 -1
2993 3234 -1
2993 3249 -1
2993 3250 -1
2993 3265 -1
2993 3266 -1
2994 2994 2.6E1
2994 2995 -1
2994 3009 -1
2994 3010 -1
2994 3011 -1
2994 3233 -1
2994 3234 -1
2994 3235 -1
2994 3249 -1
2994 3250 -1
2994 3251 -1
2994 3265 -1
2994 3266 -1
2994 3267 -1
2995 2995 2.6E1
2995 2996 -1
2995 3010 -1
2995 3011 -1
2995 3012 -1
2995 3234 -1
2995 3235 -1
2995 3236 -1
2995 3250 -1
2995 3251 -1
2995 3252 -1
2995 3266 -1
2995 3267 -1
2995 3268 -1
2996 2996 2.6E1
2996 2997 -1
2996 3011 -1
2996 3012 -1
2996 3013 -1
2996 3235 -1
2996 3236 -1
2996 3237 -1
2996 3251 -1
2996 3252 -1
2996 3253 -1
2996 3267 -1
2996 3268 -1
2996 3269 -1
2997 2997 2.6E1
2997 2998 -1
2997 3012 -1
2997 3013 -1
2997 3014 -1
2997 3236 -1
2997 3237 -1
2997 3238 -1
2997 3252 -1
2997 3253 -1
2997 3254 -1
2997 3268 -1
2997 3269 -1
2997 3270 -1
2998 2998 2.6E1
2998 2999 -1
2998 3013 -1
2998 3014 -1
2998 3015 -1
2998 3237 -1
2998 3238 -1
2998 3239 -1
2998 3253 -1
2998 3254 -1
2998 3255 -1
2998 3269 -1
2998 3270 -1
2998 3271 -1
2999 2999 2.6E1
2999 3000 -1
2999 3014 -1
2999 3015 -1
2999 3016 -1
2999 3238 -1
2999 3239 -1
2999 3240 -1
2999 3254 -1
2999 3255 -1
2999 3256 -1
2999 3270 -1
2999 3271 -1
2999 3272 -1
3000 3000 2.6E1
3000 3001 -1
3000 3015 -1
3000 3016 -1
3000 3017 -1
3000 3239 -1
3000 3240 -1
3000 3241 -1
3000 3255 -1
3000 3256 -1
3000 3257 -1
3000 3271 -1
3000 3272 -1
3000 3273 -1
3001 3001 2.6E1
3001 3002 -1
3001 3016 -1
3001 3017 -1
3001 3018 -1
3001 3240 -1
3001 3241 -1
3001 3242 -1
3001 3256 -1
3001 3257 -1
3001 3258 -1
3001 3272 -1
3001 3273 -1
3001 3274 -1
3002 3002 2.6E1
3002 3003 -1
3002 3017 -1
3002 3018 -1
3002 3019 -1
3002 3241 -1
3002 3242 -1
3002 3243 -1
3002 3257 -1
3002 3258 -1
3002 3259 -1
3002 3273 -1
3002 3274 -1
3002 3275 -1
3003 3003 2.6E1
3003 3004 -1
3003 3018 -1
3003 3019 -1
3003 3020 -1
3003 3242 -1
3003 3243 -1
3003 3244 -1
3003 3258 -1
3003 3259 -1
3003 3260 -1
3003 3274 -1
3003 3275 -1
3003 3276 -1
3004 3004 2.6E1
3004 3005 -1
3004 3019 -1
3004 3020 -1
3004 3021 -1
3004 3243 -1
3004 3244 -1
3004 3245 -1
3004 3259 -1
3004 3260 -1
3004 3261 -1
3004 3275 -1
3004 3276 -1
3004 3277 -1
3005 3005 2.6E1
3005 3006 -1
3005 3020 -1
3005 3021 -1
3005 3022 -1
3005 3244 -1
3005 3245 -1
3005 3246 -1
3005 3260 -1
3005 3261 -1
3005 3262 -1
3005 3276 -1
3005 3277 -1
3005 3278 -1
3006 3006 2.6E1
3006 3007 -1
3006 3021 -1
3006 3022 -1
3006 3023 -1
3006 3245 -1
3006 3246 -1
3006 3247 -1
3006 3261 -1
3006 3262 -1
3006 3263 -1
3006 3277 -1
3006 3278 -1
3006 3279 -1
3007 3007 2.6E1
3007 3008 -1
3007 3022 -1
3007 3023 -1
3007 3024 -1
3007 3246 -1
3007 3247 -1
3007 3248 -1
3007 3262 -1
3007 3263 -1
3007 3264 -1
3007 3278 -1
3007 3279 -1
3007 3280 -1
3008 3008 2.6E1
3008 3023 -1
3008 3024 -1
3008 3247 -1
3008 3248 -1
3008 3263 -1
3008 3264 -1
3008 3279 -1
3008 3280 -1
3009 3009 2.6E1
3009 3010 -1
3009 3025 -1
3009 3026 -1
3009 3249 -1
3009 3250 -1
3009 3265 -1
3009 3266 -1
3009 3281 -1
3009 3282 -1
3010 3010 2.6E1
3010 3011 -1
3010 3025 -1
3010 3026 -1
3010 3027 -1
3010 3249 -1
3010 3250 -1
3010 3251 -1
3010 3265 -1
3010 3266 -1
3010 3267 -1
3010 3281 -1
3010 3282 -1
3010 3283 -1
3011 3011 2.6E1
3011 3012 -1
3011 3026 -1
3011 3027 -1
3011 3028 -1
3011 3250 -1
3011 3251 -1
3011 3252 -1
3011 3266 -1
3011 3267 -1
3011 3268 -1
3011 3282 -1
3011 3283 -1
3011 3284 -1
3012 3012 2.6E1
3012 3013 -1
3012 3027 -1
3012 3028 -1
3012 3029 -1
3012 3251 -1
3012 3252 -1
3012 3253 -1
3012 3267 -1
3012 3268 -1
3012 3269 -1
3012 3283 -1
3012 3284 -1
3012 3285 -1
3013 3013 2.6E1
3013 3014 -1
3013 3028 -1
3013 3029 -1
3013 3030 -1
3013 3252 -1
3013 3253 -1
3013 3254 -1
3013 3268 -1
3013 3269 -1
3013 3270 -1
3013 3284 -1
3013 3285 -1
3013 3286 -1
3014 3014 2.6E1
3014 3015 -1
3014 3029 -1
3014 3030 -1
3014 3031 -1
3014 3253 -1
3014 3254 -1
3014 3255 -1
3014 3269 -1
3014 3270 -1
3014 3271 -1
3014 3285 -1
3014 3286 -1
3014 3287 -1
3015 3015 2.6E1
3015 3016 -1
3015 3030 -1
3015 3031 -1
3015 3032 -1
3015 3254 -1
3015 3255 -1
3015 3256 -1
3015 3270 -1
3015 3271 -1
3015 3272 -1
3015 3286 -1
3015 3287 -1
3015 3288 -1
3016 3016 2.6E1
3016 3017 -1
3016 3031 -1
3016 3032 -1
3016 3033 -1
3016 3255 -1
3016 3256 -1
3016 3257 -1
3016 3271 -1
3016 3272 -1
3016 3273 -1
3016 3287 -1
3016 3288 -1
3016 3289 -1
3017 3017 2.6E1
3017 3018 -1
3017 3032 -1
3017 3033 -1
3017 3034 -1
3017 3256 -1
3017 3257 -1
3017 3258 -1
3017 3272 -1
3017 3273 -1
3017 3274 -1
3017 3288 -1
3017 3289 -1
3017 3290 -1
3018 3018 2.6E1
3018 3019 -1
3018 3033 -1
3018 3034 -1
3018 3035 -1
3018 3257 -1
3018 3258 -1
3018 3259 -1
3018 3273 -1
3018 3274 -1
3018 3275 -1
3018 3289 -1
3018 3290 -1
3018 3291 -1
3019 3019 2.6E1
3019 3020 -1
3019 3034 -1
3019 3035 -1
3019 3036 -1
3019 3258 -1
3019 3259 -1
3019 3260 -1
3019 3274 -1
3019 3275 -1
3019 3276 -1
3019 3290 -1
3019 3291 -1
3019 3292 -1
3020 3020 2.6E1
3020 3021 -1
3020 3035 -1
3020 3036 -1
3020 3037 -1
3020 3259 -1
3020 3260 -1
3020 3261 -1
3020 3275 -1
3020 3276 -1
3020 3277 -1
3020 3291 -1
3020 3292 -1
3020 3293 -1
3021 3021 2.6E1
3021 3022 -1
3021 3036 -1
3021 3037 -1
3021 3038 -1
3021 3260 -1
3021 3261 -1
3021 3262 -1
3021 3276 -1
3021 3277 -1
3021 3278 -1
3021 3292 -1
3021 3293 -1
3021 3294 -1
3022 3022 2.6E1
3022 3023 -1
3022 3037 -1
3022 3038 -1
3022 3039 -1
3022 3261 -1
3022 3262 -1
3022 3263 -1
3022 3277 -1
3022 3278 -1
3022 3279 -1
3022 3293 -1
3022 3294 -1
3022 3295 -1
3023 3023 2.6E1
3023 3024 -1
3023 3038 -1
3023 3039 -1
3023 3040 -1
3023 3262 -1
3023 3263 -1
3023 3264 -1
3023 3278 -1
3023 3279 -1
3023 3280 -1
3023 3294 -1
3023 3295 -1
3023 3296 -1
3024 3024 2.6E1
3024 3039 -1
3024 3040 -1
3024 3263 -1
3024 3264 -1
3024 3279 -1
3024 3280 -1
3024 3295 -1
3024 3296 -1
3025 3025 2.6E1
3025 3026 -1
3025 3041 -1
3025 3042 -1
3025 3265 -1
3025 3266 -1
3025 3281 -1
3025 3282 -1
3025 3297 -1
3025 3298 -1
3026 3026 2.6E1
3026 3027 -1
3026 3041 -1
3026 3042 -1
3026 3043 -1
3026 3265 -1
3026 3266 -1
3026 3267 -1
3026 3281 -1
3026 3282 -1
3026 3283 -1
3026 3297 -1
3026 3298 -1
3026 3299 -1
3027 3027 2.6E1
3027 3028 -1
3027 3042 -1
3027 3043 -1
3027 3044 -1
3027 3266 -1
3027 3267 -1
3027 3268 -1
3027 3282 -1
3027 3283 -1
3027 3284 -1
3027 3298 -1
3027 3299 -1
3027 3300 -1
3028 3028 2.6E1
3028 3029 -1
3028 3043 -1
3028 3044 -1
3028 3045 -1
3028 3267 -1
3028 3268 -1
3028 3269 -1
3028 3283 -1
3028 3284 -1
3028 3285 -1
3028 3299 -1
3028 3300 -1
3028 3301 -1
3029 3029 2.6E1
3029 3030 -1
3029 3044 -1
3029 3045 -1
3029 3046 -1
3029 3268 -1
3029 3269 -1
3029 3270 -1
3029 3284 -1
3029 3285 -1
3029 3286 -1
3029 3300 -1
3029 3301 -1
3029 3302 -1
3030 3030 2.6E1
3030 3031 -1
3030 3045 -1
3030 3046 -1
3030 3047 -1
3030 3269 -1
3030 3270 -1
3030 3271 -1
3030 3285 -1
3030 3286 -1
3030 3287 -1
3030 3301 -1
3030 3302 -1
3030 3303 -1
3031 3031 2.6E1
3031 3032 -1
3031 3046 -1
3031 3047 -1
3031 3048 -1
3031 3270 -1
3031 3271 -1
3031 3272 -1
3031 3286 -1
3031 3287 -1
3031 3288 -1
3031 3302 -1
3031 3303 -1
3031 3304 -1
3032 3032 2.6E1
3032 3033 -1
3032 3047 -1
3032 3048 -1
3032 3049 -1
3032 3271 -1
3032 3272 -1
3032 3273 -1
3032 3287 -1
3032 3288 -1
3032 3289 -1
3032 3303 -1
3032 3304 -1
3032 3305 -1
3033 3033 2.6E1
3033 3034 -1
3033 3048 -1
3033 3049 -1
3033 3050 -1
3033 3272 -1
3033 3273 -1
3033 3274 -1
3033 3288 -1
3033 3289 -1
3033 3290 -1
3033 3304 -1
3033 3305 -1
3033 3306 -1
3034 3034 2.6E1
3034 3035 -1
3034 3049 -1
3034 3050 -1
3034 3051 -1
3034 3273 -1
3034 3274 -1
3034 3275 -1
3034 3289 -1
3034 3290 -1
3034 3291 -1
3034 3305 -1
3034 3306 -1
3034 3307 -1
3035 3035 2.6E1
3035 3036 -1
3035 3050 -1
3035 3051 -1
3035 3052 -1
3035 3274 -1
3035 3275 -1
3035 3276 -1
3035 3290 -1
3035 3291 -1
3035 3292 -1
3035 3306 -1
3035 3307 -1
3035 3308 -1
3036 3036 2.6E1
3036 3037 -1
3036 3051 -1
3036 3052 -1
3036 3053 -1
3036 3275 -1
3036 3276 -1
3036 3277 -1
3036 3291 -1
3036 3292 -1
3036 3293 -1
3036 3307 -1
3036 3308 -1
3036 3309 -1
3037 3037 2.6E1
3037 3038 -1
3037 3052 -1
3037 3053 -1
3037 3054 -1
3037 3276 -1
3037 3277 -1
3037 3278 -1
3037 3292 -1
3037 3293 -1
3037 3294 -1
3037 3308 -1
3037 3309 -1
3037 3310 -1
3038 3038 2.6E1
3038 3039 -1
3038 3053 -1
3038 3054 -1
3038 3055 -1
3038 3277 -1
3038 3278 -1
3038 3279 -1
3038 3293 -1
3038 3294 -1
3038 3295 -1
3038 3309 -1
3038 3310 -1
3038 3311 -1
3039 3039 2.6E1
3039 3040 -1
3039 3054 -1
3039 3055 -1
3039 3056 -1
3039 3278 -1
3039 3279 -1
3039 3280 -1
3039 3294 -1
3039 3295 -1
3039 3296 -1
3039 3310 -1
3039 3311 -1
3039 3312 -1
3040 3040 2.6E1
3040 3055 -1
3040 3056 -1
3040 3279 -1
3040 3280 -1
3040 3295 -1
3040 3296 -1
3040 3311 -1
3040 3312 -1
3041 3041 2.6E1
3041 3042 -1
3041 3057 -1
3041 3058 -1
3041 3281 -1
3041 3282 -1
3041 3297 -1
3041 3298 -1
3041 3313 -1
3041 3314 -1
3042 3042 2.6E1
3042 3043 -1
3042 3057 -1
3042 3058 -1
3042 3059 -1
3042 3281 -1
3042 3282 -1
3042 3283 -1
3042 3297 -1
3042 3298 -1
3042 3299 -1
3042 3313 -1
3042 3314 -1
3042 3315 -1
3043 3043 2.6E1
3043 3044 -1
3043 3058 -1
3043 3059 -1
3043 3060 -1
3043 3282 -1
3043 3283 -1
3043 3284 -1
3043 3298 -1
3043 3299 -1
3043 3300 -1
3043 3314 -1
3043 3315 -1
3043 3316 -1
3044 3044 2.6E1
3044 3045 -1
3044 3059 -1
3044 3060 -1
3044 3061 -1
3044 3283 -1
3044 3284 -1
3044 3285 -1
3044 3299 -1
3044 3300 -1
3044 3301 -1
3044 3315 -1
3044 3316 -1
3044 3317 -1
3045 3045 2.6E1
3045 3046 -1
3045 3060 -1
3045 3061 -1
3045 3062 -1
3045 3284 -1
3045 3285 -1
3045 3286 -1
3045 3300 -1
3045 3301 -1
3045 3302 -1
3045 3316 -1
3045 3317 -1
3045 3318 -1
3046 3046 2.6E1
3046 3047 -1
3046 3061 -1
3046 3062 -1
3046 3063 -1
3046 3285 -1
3046 3286 -1
3046 3287 -1
3046 3301 -1
3046 3302 -1
3046 3303 -1
3046 3317 -1
3046 3318 -1
3046 3319 -1
3047 3047 2.6E1
3047 3048 -1
3047 3062 -1
3047 3063 -1
3047 3064 -1
3047 3286 -1
3047 3287 -1
3047 3288 -1
3047 3302 -1
3047 3303 -1
3047 3304 -1
3047 3318 -1
3047 3319 -1
3047 3320 -1
3048 3048 2.6E1
3048 3049 -1
3048 3063 -1
3048 3064 -1
3048 3065 -1
3048 3287 -1
3048 3288 -1
3048 3289 -1
3048 3303 -1
3048 3304 -1
3048 3305 -1
3048 3319 -1
3048 3320 -1
3048 3321 -1
3049 3049 2.6E1
3049 3050 -1
3049 3064 -1
3049 3065 -1
3049 3066 -1
3049 3288 -1
3049 3289 -1
3049 3290 -1
3049 3304 -1
3049 3305 -1
3049 3306 -1
3049 3320 -1
3049 3321 -1
3049 3322 -1
3050 3050 2.6E1
3050 3051 -1
3050 3065 -1
3050 3066 -1
3050 3067 -1
3050 3289 -1
3050 3290 -1
3050 3291 -1
3050 3305 -1
3050 3306 -1
3050 3307 -1
3050 3321 -1
3050 3322 -1
3050 3323 -1
3051 3051 2.6E1
3051 3052 -1
3051 3066 -1
3051 3067 -1
3051 3068 -1
3051 3290 -1
3051 3291 -1
3051 3292 -1
3051 3306 -1
3051 3307 -1
3051 3308 -1
3051 3322 -1
3051 3323 -1
3051 3324 -1
3052 3052 2.6E1
3052 3053 -1
3052 3067 -1
3052 3068 -1
3052 3069 -1
3052 3291 -1
3052 3292 -1
3052 3293 -1
3052 3307 -1
3052 3308 -1
3052 3309 -1
3052 3323 -1
3052 3324 -1
3052 3325 -1
3053 3053 2.6E1
3053 3054 -1
3053 3068 -1
3053 3069 -1
3053 3070 -1
3053 3292 -1
3053 3293 -1
3053 3294 -1
3053 3308 -1
3053 3309 -1
3053 3310 -1
3053 3324 -1
3053 3325 -1
3053 3326 -1
3054 3054 2.6E1
3054 3055 -1
3054 3069 -1
3054 3070 -1
3054 3071 -1
3054 3293 -1
3054 3294 -1
3054 3295 -1
3054 3309 -1
3054 3310 -1
3054 3311 -1
3054 3325 -1
3054 3326 -1
3054 3327 -1
3055 3055 2.6E1
3055 3056 -1
3055 3070 -1
3055 3071 -1
3055 3072 -1
3055 3294 -1
3055 3295 -1
3055 3296 -1
3055 3310 -1
3055 3311 -1
3055 3312 -1
3055 3326 -1
3055 3327 -1
3055 3328 -1
3056 3056 2.6E1
3056 3071 -1
3056 3072 -1
3056 3295 -1
3056 3296 -1
3056 3311 -1
3056 3312 -1
3056 3327 -1
3056 3328 -1
3057 3057 2.6E1
3057 3058 -1
3057 3297 -1
3057 3298 -1
3057 3313 -1
3057 3314 -1
3058 3058 2.6E1
3058 3059 -1
3058 3297 -1
3058 3298 -1
3058 3299 -1
3058 3313 -1
3058 3314 -1
3058 3315 -1
3059 3059 2.6E1
3059 3060 -1
3059 3298 -1
3059 3299 -1
3059 3300 -1
3059 3314 -1
3059 3315 -1
3059 3316 -1
3060 3060 2.6E1
3060 3061 -1
3060 3299 -1
3060 3300 -1
3060 3301 -1
3060 3315 -1
3060 3316 -1
3060 3317 -1
3061 3061 2.6E1
3061 3062 -1
3061 3300 -1
3061 3301 -1
3061 3302 -1
3061 3316 -1
3061 3317 -1
3061 3318 -1
3062 3062 2.6E1
3062 3063 -1
3062 3301 -1
3062 3302 -1
3062 3303 -1
3062 3317 -1
3062 3318 -1
3062 3319 -1
3063 3063 2.6E1
3063 3064 -1
3063 3302 -1
3063 3303 -1
3063 3304 -1
3063 3318 -1
3063 3319 -1
3063 3320 -1
3064 3064 2.6E1
3064 3065 -1
3064 3303 -1
3064 3304 -1
3064 3305 -1
3064 3319 -1
3064 3320 -1
3064 3321 -1
3065 3065 2.6E1
3065 3066 -1
3065 3304 -1
3065 3305 -1
3065 3306 -1
3065 3320 -1
3065 3321 -1
3065 3322 -1
3066 3066 2.6E1
3066 3067 -1
3066 3305 -1
3066 3306 -1
3066 3307 -1
3066 3321 -1
3066 3322 -1
3066 3323 -1
3067 3067 2.6E1
3067 3068 -1
3067 3306 -1
3067 3307 -1
3067 3308 -1
3067 3322 -1
3067 3323 -1
3067 3324 -1
3068 3068 2.6E1
3068 3069 -1
3068 3307 -1
3068 3308 -1
3068 3309 -1
3068 3323 -1
3068 3324 -1
3068 3325 -1
3069 3069 2.6E1
3069 3070 -1
3069 3308 -1
3069 3309 -1
3069 3310 -1
3069 3324 -1
3069 3325 -1
3069 3326 -1
3070 3070 2.6E1
3070 3071 -1
3070 3309 -1
3070 3310 -1
3070 3311 -1
3070 3325 -1
3070 3326 -1
3070 3327 -1
3071 3071 2.6E1
3071 3072 -1
3071 3310 -1
3071 3311 -1
3071 3312 -1
3071 3326 -1
3071 3327 -1
3071 3328 -1
3072 3072 2.6E1
3072 3311 -1
3072 3312 -1
3072 3327 -1
3072 3328 -1
3073 3073 2.6E1
3073 3074 -1
3073 3089 -1
3073 3090 -1
3073 3329 -1
3073 3330 -1
3073 3345 -1
3073 3346 -1
3074 3074 2.6E1
3074 3075 -1
3074 3089 -1
3074 3090 -1
3074 3091 -1
3074 3329 -1
3074 3330 -1
3074 3331 -1
3074 3345 -1
3074 3346 -1
3074 3347 -1
3075 3075 2.6E1
3075 3076 -1
3075 3090 -1
3075 3091 -1
3075 3092 -1
3075 3330 -1
3075 3331 -1
3075 3332 -1
3075 3346 -1
3075 3347 -1
3075 3348 -1
3076 3076 2.6E1
3076 3077 -1
3076 3091 -1
3076 3092 -1
3076 3093 -1
3076 3331 -1
3076 3332 -1
3076 3333 -1
3076 3347 -1
3076 3348 -1
3076 3349 -1
3077 3077 2.6E1
3077 3078 -1
3077 3092 -1
3077 3093 -1
3077 3094 -1
3077 3332 -1
3077 3333 -1
3077 3334 -1
3077 3348 -1
3077 3349 -1
3077 3350 -1
3078 3078 2.6E1
3078 3079 -1
3078 3093 -1
3078 3094 -1
3078 3095 -1
3078 3333 -1
3078 3334 -1
3078 3335 -1
3078 3349 -1
3078 3350 -1
3078 3351 -1
3079 3079 2.6E1
3079 3080 -1
3079 3094 -1
3079 3095 -1
3079 3096 -1
3079 3334 -1
3079 3335 -1
3079 3336 -1
3079 3350 -1
3079 3351 -1
3079 3352 -1
3080 3080 2.6E1
3080 3081 -1
3080 3095 -1
3080 3096 -1
3080 3097 -1
3080 3335 -1
3080 3336 -1
3080 3337 -1
3080 3351 -1
3080 3352 -1
3080 3353 -1
3081 3081 2.6E1
3081 3082 -1
3081 3096 -1
3081 3097 -1
3081 3098 -1
3081 3336 -1
3081 3337 -1
3081 3338 -1
3081 3352 -1
3081 3353 -1
3081 3354 -1
3082 3082 2.6E1
3082 3083 -1
3082 3097 -1
3082 3098 -1
3082 3099 -1
3082 3337 -1
3082 3338 -1
3082 3339 -1
3082 3353 -1
3082 3354 -1
3082 3355 -1
3083 3083 2.6E1
3083 3084 -1
3083 3098 -1
3083 3099 -1
3083 3100 -1
3083 3338 -1
3083 3339 -1
3083 3340 -1
3083 3354 -1
3083 3355 -1
3083 3356 -1
3084 3084 2.6E1
3084 3085 -1
3084 3099 -1
3084 3100 -1
3084 3101 -1
3084 3339 -1
3084 3340 -1
3084 3341 -1
3084 3355 -1
3084 3356 -1
3084 3357 -1
3085 3085 2.6E1
3085 3086 -1
3085 3100 -1
3085 3101 -1
3085 3102 -1
3085 3340 -1
3085 3341 -1
3085 3342 -1
3085 3356 -1
3085 3357 -1
3085 3358 -1
3086 3086 2.6E1
3086 3087 -1
3086 3101 -1
3086 3102 -1
3086 3103 -1
3086 3341 -1
3086 3342 -1
3086 3343 -1
3086 3357 -1
3086 3358 -1
3086 3359 -1
3087 3087 2.6E1
3087 3088 -1
3087 3102 -1
3087 3103 -1
3087 3104 -1
3087 3342 -1
3087 3343 -1
3087 3344 -1
3087 3358 -1
3087 3359 -1
3087 3360 -1
3088 3088 2.6E1
3088 3103 -1
3088 3104 -1
3088 3343 -1
3088 3344 -1
3088 3359 -1
3088 3360 -1
3089 3089 2.6E1
3089 3090 -1
3089 3105 -1
3089 3106 -1
3089 3329 -1
3089 3330 -1
3089 3345 -1
3089 3346 -1
3089 3361 -1
3089 3362 -1
3090 3090 2.6E1
3090 3091 -1
3090 3105 -1
3090 3106 -1
3090 3107 -1
3090 3329 -1
3090 3330 -1
3090 3331 -1
3090 3345 -1
3090 3346 -1
3090 3347 -1
3090 3361 -1
3090 3362 -1
3090 3363 -1
3091 3091 2.6E1
3091 3092 -1
3091 3106 -1
3091 3107 -1
3091 3108 -1
3091 3330 -1
3091 3331 -1
3091 3332 -1
3091 3346 -1
3091 3347 -1
3091 3348 -1
3091 3362 -1
3091 3363 -1
3091 3364 -1
3092 3092 2.6E1
3092 3093 -1
3092 3107 -1
3092 3108 -1
3092 3109 -1
3092 3331 -1
3092 3332 -1
3092 3333 -1
3092 3347 -1
3092 3348 -1
3092 3349 -1
3092 3363 -1
3092 3364 -1
3092 3365 -1
3093 3093 2.6E1
3093 3094 -1
3093 3108 -1
3093 3109 -1
3093 3110 -1
3093 3332 -1
3093 3333 -1
3093 3334 -1
3093 3348 -1
3093 3349 -1
3093 3350 -1
3093 3364 -1
3093 3365 -1
3093 3366 -1
3094 3094 2.6E1
3094 3095 -1
3094 3109 -1
3094 3110 -1
3094 3111 -1
3094 3333 -1
3094 3334 -1
3094 3335 -1
3094 3349 -1
3094 3350 -1
3094 3351 -1
3094 3365 -1
3094 3366 -1
3094 3367 -1
3095 3095 2.6E1
3095 3096 -1
3095 3110 -1
3095 3111 -1
3095 3112 -1
3095 3334 -1
3095 3335 -1
3095 3336 -1
3095 3350 -1
3095 3351 -1
3095 3352 -1
3095 3366 -1
3095 3367 -1
3095 3368 -1
3096 3096 2.6E1
3096 3097 -1
3096 3111 -1
3096 3112 -1
3096 3113 -1
3096 3335 -1
3096 3336 -1
3096 3337 -1
3096 3351 -1
3096 3352 -1
3096 3353 -1
3096 3367 -1
3096 3368 -1
3096 3369 -1
3097 3097 2.6E1
3097 3098 -1
3097 3112 -1
3097 3113 -1
3097 3114 -1
3097 3336 -1
3097 3337 -1
3097 3338 -1
3097 3352 -1
3097 3353 -1
3097 3354 -1
3097 3368 -1
3097 3369 -1
3097 3370 -1
3098 3098 2.6E1
3098 3099 -1
3098 3113 -1
3098 3114 -1
3098 3115 -1
3098 3337 -1
3098 3338 -1
3098 3339 -1
3098 3353 -1
3098 3354 -1
3098 3355 -1
3098 3369 -1
3098 3370 -1
3098 3371 -1
3099 3099 2.6E1
3099 3100 -1
3099 3114 -1
3099 3115 -1
3099 3116 -1
3099 3338 -1
3099 3339 -1
3099 3340 -1
3099 3354 -1
3099 3355 -1
3099 3356 -1
3099 3370 -1
3099 3371 -1
3099 3372 -1
3100 3100 2.6E1
3100 3101 -1
3100 3115 -1
3100 3116 -1
3100 3117 -1
3100 3339 -1
3100 3340 -1
3100 3341 -1
3100 3355 -1
3100 3356 -1
3100 3357 -1
3100 3371 -1
3100 3372 -1
3100 3373 -1
3101 3101 2.6E1
3101 3102 -1
3101 3116 -1
3101 3117 -1
3101 3118 -1
3101 3340 -1
3101 3341 -1
3101 3342 -1
3101 3356 -1
3101 3357 -1
3101 3358 -1
3101 3372 -1
3101 3373 -1
3101 3374 -1
3102 3102 2.6E1
3102 3103 -1
3102 3117 -1
3102 3118 -1
3102 3119 -1
3102 3341 -1
3102 3342 -1
3102 3343 -1
3102 3357 -1
3102 3358 -1
3102 3359 -1
3102 3373 -1
3102 3374 -1
3102 3375 -1
3103 3103 2.6E1
3103 3104 -1
3103 3118 -1
3103 3119 -1
3103 3120 -1
3103 3342 -1
3103 3343 -1
3103 3344 -1
3103 3358 -1
3103 3359 -1
3103 3360 -1
3103 3374 -1
3103 3375 -1
3103 3376 -1
3104 3104 2.6E1
3104 3119 -1
3104 3120 -1
3104 3343 -1
3104 3344 -1
3104 3359 -1
3104 3360 -1
3104 3375 -1
3104 3376 -1
3105 3105 2.6E1
3105 3106 -1
3105 3121 -1
3105 3122 -1
3105 3345 -1
3105 3346 -1
3105 3361 -1
3105 3362 -1
3105 3377 -1
3105 3378 -1
3106 3106 2.6E1
3106 3107 -1
3106 3121 -1
3106 3122 -1
3106 3123 -1
3106 3345 -1
3106 3346 -1
3106 3347 -1
3106 3361 -1
3106 3362 -1
3106 3363 -1
3106 3377 -1
3106 3378 -1
3106 3379 -1
3107 3107 2.6E1
3107 3108 -1
3107 3122 -1
3107 3123 -1
3107 3124 -1
3107 3346 -1
3107 3347 -1
3107 3348 -1
3107 3362 -1
3107 3363 -1
3107 3364 -1
3107 3378 -1
3107 3379 -1
3107 3380 -1
3108 3108 2.6E1
3108 3109 -1
3108 3123 -1
3108 3124 -1
3108 3125 -1
3108 3347 -1
3108 3348 -1
3108 3349 -1
3108 3363 -1
3108 3364 -1
3108 3365 -1
3108 3379 -1
3108 3380 -1
3108 3381 -1
3109 3109 2.6E1
3109 3110 -1
3109 3124 -1
3109 3125 -1
3109 3126 -1
3109 3348 -1
3109 3349 -1
3109 3350 -1
3109 3364 -1
3109 3365 -1
3109 3366 -1
3109 3380 -1
3109 3381 -1
3109 3382 -1
3110 3110 2.6E1
3110 3111 -1
3110 3125 -1
3110 3126 -1
3110 3127 -1
3110 3349 -1
3110 3350 -1
3110 3351 -1
3110 3365 -1
3110 3366 -1
3110 3367 -1
3110 3381 -1
3110 3382 -1
3110 3383 -1
3111 3111 2.6E1
3111 3112 -1
3111 3126 -1
3111 3127 -1
3111 3128 -1
3111 3350 -1
3111 3351 -1
3111 3352 -1
3111 3366 -1
3111 3367 -1
3111 3368 -1
3111 3382 -1
3111 3383 -1
3111 3384 -1
3112 3112 2.6E1
3112 3113 -1
3112 3127 -1
3112 3128 -1
3112 3129 -1
3112 3351 -1
3112 3352 -1
3112 3353 -1
3112 3367 -1
3112 3368 -1
3112 3369 -1
3112 3383 -1
3112 3384 -1
3112 3385 -1
3113 3113 2.6E1
3113 3114 -1
3113 3128 -1
3113 3129 -1
3113 3130 -1
3113 3352 -1
3113 3353 -1
3113 3354 -1
3113 3368 -1
3113 3369 -1
3113 3370 -1
3113 3384 -1
3113 3385 -1
3113 3386 -1
3114 3114 2.6E1
3114 3115 -1
3114 3129 -1
3114 3130 -1
3114 3131 -1
3114 3353 -1
3114 3354 -1
3114 3355 -1
3114 3369 -1
3114 3370 -1
3114 3371 -1
3114 3385 -1
3114 3386 -1
3114 3387 -1
3115 3115 2.6E1
3115 3116 -1
3115 3130 -1
3115 3131 -1
3115 3132 -1
3115 3354 -1
3115 3355 -1
3115 3356 -1
3115 3370 -1
3115 3371 -1
3115 3372 -1
3115 3386 -1
3115 3387 -1
3115 3388 -1
3116 3116 2.6E1
3116 3117 -1
3116 3131 -1
3116 3132 -1
3116 3133 -1
3116 3355 -1
3116 3356 -1
3116 3357 -1
3116 3371 -1
3116 3372 -1
3116 3373 -1
3116 3387 -1
3116 3388 -1
3116 3389 -1
3117 3117 2.6E1
3117 3118 -1
3117 3132 -1
3117 3133 -1
3117 3134 -1
3117 3356 -1
3117 3357 -1
3117 3358 -1
3117 3372 -1
3117 3373 -1
3117 3374 -1
3117 3388 -1
3117 3389 -1
3117 3390 -1
3118 3118 2.6E1
3118 3119 -1
3118 3133 -1
3118 3134 -1
3118 3135 -1
3118 3357 -1
3118 3358 -1
3118 3359 -1
3118 3373 -1
3118 3374 -1
3118 3375 -1
3118 3389 -1
3118 3390 -1
3118 3391 -1
3119 3119 2.6E1
3119 3120 -1
3119 3134 -1
3119 3135 -1
3119 3136 -1
3119 3358 -1
3119 3359 -1
3119 3360 -1
3119 3374 -1
3119 3375 -1
3119 3376 -1
3119 3390 -1
3119 3391 -1
3119 3392 -1
3120 3120 2.6E1
3120 3135 -1
3120 3136 -1
3120 3359 -1
3120 3360 -1
3120 3375 -1
3120 3376 -1
3120 3391 -1
3120 3392 -1
3121 3121 2.6E1
3121 3122 -1
3121 3137 -1
3121 3138 -1
3121 3361 -1
3121 3362 -1
3121 3377 -1
3121 3378 -1
3121 3393 -1
3121 3394 -1
3122 3122 2.6E1
3122 3123 -1
3122 3137 -1
3122 3138 -1
3122 3139 -1
3122 3361 -1
3122 3362 -1
3122 3363 -1
3122 3377 -1
3122 3378 -1
3122 3379 -1
3122 3393 -1
3122 3394 -1
3122 3395 -1
3123 3123 2.6E1
3123 3124 -1
3123 3138 -1
3123 3139 -1
3123 3140 -1
3123 3362 -1
3123 3363 -1
3123 3364 -1
3123 3378 -1
3123 3379 -1
3123 3380 -1
3123 3394 -1
3123 3395 -1
3123 3396 -1
3124 3124 2.6E1
3124 3125 -1
3124 3139 -1
3124 3140 -1
3124 3141 -1
3124 3363 -1
3124 3364 -1
3124 3365 -1
3124 3379 -1
3124 3380 -1
3124 3381 -1
3124 3395 -1
3124 3396 -1
3124 3397 -1
3125 3125 2.6E1
3125 3126 -1
3125 3140 -1
3125 3141 -1
3125 3142 -1
3125 3364 -1
3125 3365 -1
3125 3366 -1
3125 3380 -1
3125 3381 -1
3125 3382 -1
3125 3396 -1
3125 3397 -1
3125 3398 -1
3126 3126 2.6E1
3126 3127 -1
3126 3141 -1
3126 3142 -1
3126 3143 -1
3126 3365 -1
3126 3366 -1
3126 3367 -1
3126 3381 -1
3126 3382 -1
3126 3383 -1
3126 3397 -1
3126 3398 -1
3126 3399 -1
3127 3127 2.6E1
3127 3128 -1
3127 3142 -1
3127 3143 -1
3127 3144 -1
3127 3366 -1
3127 3367 -1
3127 3368 -1
3127 3382 -1
3127 3383 -1
3127 3384 -1
3127 3398 -1
3127 3399 -1
3127 3400 -1
3128 3128 2.6E1
3128 3129 -1
3128 3143 -1
3128 3144 -1
3128 3145 -1
3128 3367 -1
3128 3368 -1
3128 3369 -1
3128 3383 -1
3128 3384 -1
3128 3385 -1
3128 3399 -1
3128 3400 -1
3128 3401 -1
3129 3129 2.6E1
3129 3130 -1
3129 3144 -1
3129 3145 -1
3129 3146 -1
3129 3368 -1
3129 3369 -1
3129 3370 -1
3129 3384 -1
3129 3385 -1
3129 3386 -1
3129 3400 -1
3129 3401 -1
3129 3402 -1
3130 3130 2.6E1
3130 3131 -1
3130 3145 -1
3130 3146 -1
3130 3147 -1
3130 3369 -1
3130 3370 -1
3130 3371 -1
3130 3385 -1
3130 3386 -1
3130 3387 -1
3130 3401 -1
3130 3402 -1
3130 3403 -1
3131 3131 2.6E1
3131 3132 -1
3131 3146 -1
3131 3147 -1
3131 3148 -1
3131 3370 -1
3131 3371 -1
3131 3372 -1
3131 3386 -1
3131 3387 -1
3131 3388 -1
3131 3402 -1
3131 3403 -1
3131 3404 -1
3132 3132 2.6E1
3132 3133 -1
3132 3147 -1
3132 3148 -1
3132 3149 -1
3132 3371 -1
3132 3372 -1
3132 3373 -1
3132 3387 -1
3132 3388 -1
3132 3389 -1
3132 3403 -1
3132 3404 -1
3132 3405 -1
3133 3133 2.6E1
3133 3134 -1
3133 3148 -1
3133 3149 -1
3133 3150 -1
3133 3372 -1
3133 3373 -1
3133 3374 -1
3133 3388 -1
3133 3389 -1
3133 3390 -1
3133 3404 -1
3133 3405 -1
3133 3406 -1
3134 3134 2.6E1
3134 3135 -1
3134 3149 -1
3134 3150 -1
3134 3151 -1
3134 3373 -1
3134 3374 -1
3134 3375 -1
3134 3389 -1
3134 3390 -1
3134 3391 -1
3134 3405 -1
3134 3406 -1
3134 3407 -1
3135 3135 2.6E1
3135 3136 -1
3135 3150 -1
3135 3151 -1
3135 3152 -1
3135 3374 -1
3135 3375 -1
3135 3376 -1
3135 3390 -1
3135 3391 -1
3135 3392 -1
3135 3406 -1
3135 3407 -1
3135 3408 -1
3136 3136 2.6E1
3136 3151 -1
3136 3152 -1
3136 3375 -1
3136 3376 -1
3136 3391 -1
3136 3392 -1
3136 3407 -1
3136 3408 -1
3137 3137 2.6E1
3137 3138 -1
3137 3153 -1
3137 3154 -1
3137 3377 -1
3137 3378 -1
3137 3393 -1
3137 3394 -1
3137 3409 -1
3137 3410 -1
3138 3138 2.6E1
3138 3139 -1
3138 3153 -1
3138 3154 -1
3138 3155 -1
3138 3377 -1
3138 3378 -1
3138 3379 -1
3138 3393 -1
3138 3394 -1
3138 3395 -1
3138 3409 -1
3138 3410 -1
3138 3411 -1
3139 3139 2.6E1
3139 3140 -1
3139 3154 -1
3139 3155 -1
3139 3156 -1
3139 3378 -1
3139 3379 -1
3139 3380 -1
3139 3394 -1
3139 3395 -1
3139 3396 -1
3139 3410 -1
3139 3411 -1
3139 3412 -1
3140 3140 2.6E1
3140 3141 -1
3140 3155 -1
3140 3156 -1
3140 3157 -1
3140 3379 -1
3140 3380 -1
3140 3381 -1
3140 3395 -1
3140 3396 -1
3140 3397 -1
3140 3411 -1
3140 3412 -1
3140 3413 -1
3141 3141 2.6E1
3141 3142 -1
3141 3156 -1
3141 3157 -1
3141 3158 -1
3141 3380 -1
3141 3381 -1
3141 3382 -1
3141 3396 -1
3141 3397 -1
3141 3398 -1
3141 3412 -1
3141 3413 -1
3141 3414 -1
3142 3142 2.6E1
3142 3143 -1
3142 3157 -1
3142 3158 -1
3142 3159 -1
3142 3381 -1
3142 3382 -1
3142 3383 -1
3142 3397 -1
3142 3398 -1
3142 3399 -1
3142 3413 -1
3142 3414 -1
3142 3415 -1
3143 3143 2.6E1
3143 3144 -1
3143 3158 -1
3143 3159 -1
3143 3160 -1
3143 3382 -1
3143 3383 -1
3143 3384 -1
3143 3398 -1
3143 3399 -1
3143 3400 -1
3143 3414 -1
3143 3415 -1
3143 3416 -1
3144 3144 2.6E1
3144 3145 -1
3144 3159 -1
3144 3160 -1
3144 3161 -1
3144 3383 -1
3144 3384 -1
3144 3385 -1
3144 3399 -1
3144 3400 -1
3144 3401 -1
3144 3415 -1
3144 3416 -1
3144 3417 -1
3145 3145 2.6E1
3145 3146 -1
3145 3160 -1
3145 3161 -1
3145 3162 -1
3145 3384 -1
3145 3385 -1
3145 3386 -1
3145 3400 -1
3145 3401 -1
3145 3402 -1
3145 3416 -1
3145 3417 -1
3145 3418 -1
3146 3146 2.6E1
3146 3147 -1
3146 3161 -1
3146 3162 -1
3146 3163 -1
3146 3385 -1
3146 3386 -1
3146 3387 -1
3146 3401 -1
3146 3402 -1
3146 3403 -1
3146 3417 -1
3146 3418 -1
3146 3419 -1
3147 3147 2.6E1
3147 3148 -1
3147 3162 -1
3147 3163 -1
3147 3164 -1
3147 3386 -1
3147 3387 -1
3147 3388 -1
3147 3402 -1
3147 3403 -1
3147 3404 -1
3147 3418 -1
3147 3419 -1
3147 3420 -1
3148 3148 2.6E1
3148 3149 -1
3148 3163 -1
3148 3164 -1
3148 3165 -1
3148 3387 -1
3148 3388 -1
3148 3389 -1
3148 3403 -1
3148 3404 -1
3148 3405 -1
3148 3419 -1
3148 3420 -1
3148 3421 -1
3149 3149 2.6E1
3149 3150 -1
3149 3164 -1
3149 3165 -1
3149 3166 -1
3149 3388 -1
3149 3389 -1
3149 3390 -1
3149 3404 -1
3149 3405 -1
3149 3406 -1
3149 3420 -1
3149 3421 -1
3149 3422 -1
3150 3150 2.6E1
3150 3151 -1
3150 3165 -1
3150 3166 -1
3150 3167 -1
3150 3389 -1
3150 3390 -1
3150 3391 -1
3150 3405 -1
3150 3406 -1
3150 3407 -1
3150 3421 -1
3150 3422 -1
3150 3423 -1
3151 3151 2.6E1
3151 3152 -1
3151 3166 -1
3151 3167 -1
3151 3168 -1
3151 3390 -1
3151 3391 -1
3151 3392 -1
3151 3406 -1
3151 3407 -1
3151 3408 -1
3151 3422 -1
3151 3423 -1
3151 3424 -1
3152 3152 2.6E1
3152 3167 -1
3152 3168 -1
3152 3391 -1
3152 3392 -1
3152 3407 -1
3152 3408 -1
3152 3423 -1
3152 3424 -1
3153 3153 2.6E1
3153 3154 -1
3153 3169 -1
3153 3170 -1
3153 3393 -1
3153 3394 -1
3153 3409 -1
3153 3410 -1
3153 3425 -1
3153 3426 -1
3154 3154 2.6E1
3154 3155 -1
3154 3169 -1
3154 3170 -1
3154 3171 -1
3154 3393 -1
3154 3394 -1
3154 3395 -1
3154 3409 -1
3154 3410 -1
3154 3411 -1
3154 3425 -1
3154 3426 -1
3154 3427 -1
3155 3155 2.6E1
3155 3156 -1
3155 3170 -1
3155 3171 -1
3155 3172 -1
3155 3394 -1
3155 3395 -1
3155 3396 -1
3155 3410 -1
3155 3411 -1
3155 3412 -1
3155 3426 -1
3155 3427 -1
3155 3428 -1
3156 3156 2.6E1
3156 3157 -1
3156 3171 -1
3156 3172 -1
3156 3173 -1
3156 3395 -1
3156 3396 -1
3156 3397 -1
3156 3411 -1
3156 3412 -1
3156 3413 -1
3156 3427 -1
3156 3428 -1
3156 3429 -1
3157 3157 2.6E1
3157 3158 -1
3157 3172 -1
3157 3173 -1
3157 3174 -1
3157 3396 -1
3157 3397 -1
3157 3398 -1
3157 3412 -1
3157 3413 -1
3157 3414 -1
3157 3428 -1
3157 3429 -1
3157 3430 -1
3158 3158 2.6E1
3158 3159 -1
3158 3173 -1
3158 3174 -1
3158 3175 -1
3158 3397 -1
3158 3398 -1
3158 3399 -1
3158 3413 -1
3158 3414 -1
3158 3415 -1
3158 3429 -1
3158 3430 -1
3158 3431 -1
3159 3159 2.6E1
3159 3160 -1
3159 3174 -1
3159 3175 -1
3159 3176 -1
3159 3398 -1
3159 3399 -1
3159 3400 -1
3159 3414 -1
3159 3415 -1
3159 3416 -1
3159 3430 -1
3159 3431 -1
3159 3432 -1
3160 3160 2.6E1
3160 3161 -1
3160 3175 -1
3160 3176 -1
3160 3177 -1
3160 3399 -1
3160 3400 -1
3160 3401 -1
3160 3415 -1
3160 3416 -1
3160 3417 -1
3160 3431 -1
3160 3432 -1
3160 3433 -1
3161 3161 2.6E1
3161 3162 -1
3161 3176 -1
3161 3177 -1
3161 3178 -1
3161 3400 -1
3161 3401 -1
3161 3402 -1
3161 3416 -1
3161 3417 -1
3161 3418 -1
3161 3432 -1
3161 3433 -1
3161 3434 -1
3162 3162 2.6E1
3162 3163 -1
3162 3177 -1
3162 3178 -1
3162 3179 -1
3162 3401 -1
3162 3402 -1
3162 3403 -1
3162 3417 -1
3162 3418 -1
3162 3419 -1
3162 3433 -1
3162 3434 -1
3162 3435 -1
3163 3163 2.6E1
3163 3164 -1
3163 3178 -1
3163 3179 -1
3163 3180 -1
3163 3402 -1
3163 3403 -1
3163 3404 -1
3163 3418 -1
3163 3419 -1
3163 3420 -1
3163 3434 -1
3163 3435 -1
3163 3436 -1
3164 3164 2.6E1
3164 3165 -1
3164 3179 -1
3164 3180 -1
3164 3181 -1
3164 3403 -1
3164 3404 -1
3164 3405 -1
3164 3419 -1
3164 3420 -1
3164 3421 -1
3164 3435 -1
3164 3436 -1
3164 3437 -1
3165 3165 2.6E1
3165 3166 -1
3165 3180 -1
3165 3181 -1
3165 3182 -1
3165 3404 -1
3165 3405 -1
3165 3406 -1
3165 3420 -1
3165 3421 -1
3165 3422 -1
3165 3436 -1
3165 3437 -1
3165 3438 -1
3166 3166 2.6E1
3166 3167 -1
3166 3181 -1
3166 3182 -1
3166 3183 -1
3166 3405 -1
3166 3406 -1
3166 3407 -1
3166 3421 -1
3166 3422 -1
3166 3423 -1
3166 3437 -1
3166 3438 -1
3166 3439 -1
3167 3167 2.6E1
3167 3168 -1
3167 3182 -1
3167 3183 -1
3167 3184 -1
3167 3406 -1
3167 3407 -1
3167 3408 -1
3167 3422 -1
3167 3423 -1
3167 3424 -1
3167 3438 -1
3167 3439 -1
3167 3440 -1
3168 3168 2.6E1
3168 3183 -1
3168 3184 -1
3168 3407 -1
3168 3408 -1
3168 3423 -1
3168 3424 -1
3168 3439 -1
3168 3440 -1
3169 3169 2.6E1
3169 3170 -1
3169 3185 -1
3169 3186 -1
3169 3409 -1
3169 3410 -1
3169 3425 -1
3169 3426 -1
3169 3441 -1
3169 3442 -1
3170 3170 2.6E1
3170 3171 -1
3170 3185 -1
3170 3186 -1
3170 3187 -1
3170 3409 -1
3170 3410 -1
3170 3411 -1
3170 3425 -1
3170 3426 -1
3170 3427 -1
3170 3441 -1
3170 3442 -1
3170 3443 -1
3171 3171 2.6E1
3171 3172 -1
3171 3186 -1
3171 3187 -1
3171 3188 -1
3171 3410 -1
3171 3411 -1
3171 3412 -1
3171 3426 -1
3171 3427 -1
3171 3428 -1
3171 3442 -1
3171 3443 -1
3171 3444 -1
3172 3172 2.6E1
3172 3173 -1
3172 3187 -1
3172 3188 -1
3172 3189 -1
3172 3411 -1
3172 3412 -1
3172 3413 -1
3172 3427 -1
3172 3428 -1
3172 3429 -1
3172 3443 -1
3172 3444 -1
3172 3445 -1
3173 3173 2.6E1
3173 3174 -1
3173 3188 -1
3173 3189 -1
3173 3190 -1
3173 3412 -1
3173 3413 -1
3173 3414 -1
3173 3428 -1
3173 3429 -1
3173 3430 -1
3173 3444 -1
3173 3445 -1
3173 3446 -1
3174 3174 2.6E1
3174 3175 -1
3174 3189 -1
3174 3190 -1
3174 3191 -1
3174 3413 -1
3174 3414 -1
3174 3415 -1
3174 3429 -1
3174 3430 -1
3174 3431 -1
3174 3445 -1
3174 3446 -1
3174 3447 -1
3175 3175 2.6E1
3175 3176 -1
3175 3190 -1
3175 3191 -1
3175 3192 -1
3175 3414 -1
3175 3415 -1
3175 3416 -1
3175 3430 -1
3175 3431 -1
3175 3432 -1
3175 3446 -1
3175 3447 -1
3175 3448 -1
3176 3176 2.6E1
3176 3177 -1
3176 3191 -1
3176 3192 -1
3176 3193 -1
3176 3415 -1
3176 3416 -1
3176 3417 -1
3176 3431 -1
3176 3432 -1
3176 3433 -1
3176 3447 -1
3176 3448 -1
3176 3449 -1
3177 3177 2.6E1
3177 3178 -1
3177 3192 -1
3177 3193 -1
3177 3194 -1
3177 3416 -1
3177 3417 -1
3177 3418 -1
3177 3432 -1
3177 3433 -1
3177 3434 -1
3177 3448 -1
3177 3449 -1
3177 3450 -1
3178 3178 2.6E1
3178 3179 -1
3178 3193 -1
3178 3194 -1
3178 3195 -1
3178 3417 -1
3178 3418 -1
3178 3419 -1
3178 3433 -1
3178 3434 -1
3178 3435 -1
3178 3449 -1
3178 3450 -1
3178 3451 -1
3179 3179 2.6E1
3179 3180 -1
3179 3194 -1
3179 3195 -1
3179 3196 -1
3179 3418 -1
3179 3419 -1
3179 3420 -1
3179 3434 -1
3179 3435 -1
3179 3436 -1
3179 3450 -1
3179 3451 -1
3179 3452 -1
3180 3180 2.6E1
3180 3181 -1
3180 3195 -1
3180 3196 -1
3180 3197 -1
3180 3419 -1
3180 3420 -1
3180 3421 -1
3180 3435 -1
3180 3436 -1
3180 3437 -1
3180 3451 -1
3180 3452 -1
3180 3453 -1
3181 3181 2.6E1
3181 3182 -1
3181 3196 -1
3181 3197 -1
3181 3198 -1
3181 3420 -1
3181 3421 -1
3181 3422 -1
3181 3436 -1
3181 3437 -1
3181 3438 -1
3181 3452 -1
3181 3453 -1
3181 3454 -1
3182 3182 2.6E1
3182 3183 -1
3182 3197 -1
3182 3198 -1
3182 3199 -1
3182 3421 -1
3182 3422 -1
3182 3423 -1
3182 3437 -1
3182 3438 -1
3182 3439 -1
3182 3453 -1
3182 3454 -1
3182 3455 -1
3183 3183 2.6E1
3183 3184 -1
3183 3198 -1
3183 3199 -1
3183 3200 -1
3183 3422 -1
3183 3423 -1
3183 3424 -1
3183 3438 -1
3183 3439 -1
3183 3440 -1
3183 3454 -1
3183 3455 -1
3183 3456 -1
3184 3184 2.6E1
3184 3199 -1
3184 3200 -1
3184 3423 -1
3184 3424 -1
3184 3439 -1
3184 3440 -1
3184 3455 -1
3184 3456 -1
3185 3185 2.6E1
3185 3186 -1
3185 3201 -1
3185 3202 -1
3185 3425 -1
3185 3426 -1
3185 3441 -1
3185 3442 -1
3185 3457 -1
3185 3458 -1
3186 3186 2.6E1
3186 3187 -1
3186 3201 -1
3186 3202 -1
3186 3203 -1
3186 3425 -1
3186 3426 -1
3186 3427 -1
3186 3441 -1
3186 3442 -1
3186 3443 -1
3186 3457 -1
3186 3458 -1
3186 3459 -1
3187 3187 2.6E1
3187 3188 -1
3187 3202 -1
3187 3203 -1
3187 3204 -1
3187 3426 -1
3187 3427 -1
3187 3428 -1
3187 3442 -1
3187 3443 -1
3187 3444 -1
3187 3458 -1
3187 3459 -1
3187 3460 -1
3188 3188 2.6E1
3188 3189 -1
3188 3203 -1
3188 3204 -1
3188 3205 -1
3188 3427 -1
3188 3428 -1
3188 3429 -1
3188 3443 -1
3188 3444 -1
3188 3445 -1
3188 3459 -1
3188 3460 -1
3188 3461 -1
3189 3189 2.6E1
3189 3190 -1
3189 3204 -1
3189 3205 -1
3189 3206 -1
3189 3428 -1
3189 3429 -1
3189 3430 -1
3189 3444 -1
3189 3445 -1
3189 3446 -1
3189 3460 -1
3189 3461 -1
3189 3462 -1
3190 3190 2.6E1
3190 3191 -1
3190 3205 -1
3190 3206 -1
3190 3207 -1
3190 3429 -1
3190 3430 -1
3190 3431 -1
3190 3445 -1
3190 3446 -1
3190 3447 -1
3190 3461 -1
3190 3462 -1
3190 3463 -1
3191 3191 2.6E1
3191 3192 -1
3191 3206 -1
3191 3207 -1
3191 3208 -1
3191 3430 -1
3191 3431 -1
3191 3432 -1
3191 3446 -1
3191 3447 -1
3191 3448 -1
3191 3462 -1
3191 3463 -1
3191 3464 -1
3192 3192 2.6E1
3192 3193 -1
3192 3207 -1
3192 3208 -1
3192 3209 -1
3192 3431 -1
3192 3432 -1
3192 3433 -1
3192 3447 -1
3192 3448 -1
3192 3449 -1
3192 3463 -1
3192 3464 -1
3192 3465 -1
3193 3193 2.6E1
3193 3194 -1
3193 3208 -1
3193 3209 -1
3193 3210 -1
3193 3432 -1
3193 3433 -1
3193 3434 -1
3193 3448 -1
3193 3449 -1
3193 3450 -1
3193 3464 -1
3193 3465 -1
3193 3466 -1
3194 3194 2.6E1
3194 3195 -1
3194 3209 -1
3194 3210 -1
3194 3211 -1
3194 3433 -1
3194 3434 -1
3194 3435 -1
3194 3449 -1
3194 3450 -1
3194 3451 -1
3194 3465 -1
3194 3466 -1
3194 3467 -1
3195 3195 2.6E1
3195 3196 -1
3195 3210 -1
3195 3211 -1
3195 3212 -1
3195 3434 -1
3195 3435 -1
3195 3436 -1
3195 3450 -1
3195 3451 -1
3195 3452 -1
3195 3466 -1
3195 3467 -1
3195 3468 -1
3196 3196 2.6E1
3196 3197 -1
3196 3211 -1
3196 3212 -1
3196 3213 -1
3196 3435 -1
3196 3436 -1
3196 3437 -1
3196 3451 -1
3196 3452 -1
3196 3453 -1
3196 3467 -1
3196 3468 -1
3196 3469 -1
3197 3197 2.6E1
3197 3198 -1
3197 3212 -1
3197 3213 -1
3197 3214 -1
3197 3436 -1
3197 3437 -1
3197 3438 -1
3197 3452 -1
3197 3453 -1
3197 3454 -1
3197 3468 -1
3197 3469 -1
3197 3470 -1
3198 3198 2.6E1
3198 3199 -1
3198 3213 -1
3198 3214 -1
3198 3215 -1
3198 3437 -1
3198 3438 -1
3198 3439 -1
3198 3453 -1
3198 3454 -1
3198 3455 -1
3198 3469 -1
3198 3470 -1
3198 3471 -1
3199 3199 2.6E1
3199 3200 -1
3199 3214 -1
3199 3215 -1
3199 3216 -1
3199 3438 -1
3199 3439 -1
3199 3440 -1
3199 3454 -1
3199 3455 -1
3199 3456 -1
3199 3470 -1
3199 3471 -1
3199 3472 -1
3200 3200 2.6E1
3200 3215 -1
3200 3216 -1
3200 3439 -1
3200 3440 -1
3200 3455 -1
3200 3456 -1
3200 3471 -1
3200 3472 -1
3201 3201 2.6E1
3201 3202 -1
3201 3217 -1
3201 3218 -1
3201 3441 -1
3201 3442 -1
3201 3457 -1
3201 3458 -1
3201 3473 -1
3201 3474 -1
3202 3202 2.6E1
3202 3203 -1
3202 3217 -1
3202 3218 -1
3202 3219 -1
3202 3441 -1
3202 3442 -1
3202 3443 -1
3202 3457 -1
3202 3458 -1
3202 3459 -1
3202 3473 -1
3202 3474 -1
3202 3475 -1
3203 3203 2.6E1
3203 3204 -1
3203 3218 -1
3203 3219 -1
3203 3220 -1
3203 3442 -1
3203 3443 -1
3203 3444 -1
3203 3458 -1
3203 3459 -1
3203 3460 -1
3203 3474 -1
3203 3475 -1
3203 3476 -1
3204 3204 2.6E1
3204 3205 -1
3204 3219 -1
3204 3220 -1
3204 3221 -1
3204 3443 -1
3204 3444 -1
3204 3445 -1
3204 3459 -1
3204 3460 -1
3204 3461 -1
3204 3475 -1
3204 3476 -1
3204 3477 -1
3205 3205 2.6E1
3205 3206 -1
3205 3220 -1
3205 3221 -1
3205 3222 -1
3205 3444 -1
3205 3445 -1
3205 3446 -1
3205 3460 -1
3205 3461 -1
3205 3462 -1
3205 3476 -1
3205 3477 -1
3205 3478 -1
3206 3206 2.6E1
3206 3207 -1
3206 3221 -1
3206 3222 -1
3206 3223 -1
3206 3445 -1
3206 3446 -1
3206 3447 -1
3206 3461 -1
3206 3462 -1
3206 3463 -1
3206 3477 -1
3206 3478 -1
3206 3479 -1
3207 3207 2.6E1
3207 3208 -1
3207 3222 -1
3207 3223 -1
3207 3224 -1
3207 3446 -1
3207 3447 -1
3207 3448 -1
3207 3462 -1
3207 3463 -1
3207 3464 -1
3207 3478 -1
3207 3479 -1
3207 3480 -1
3208 3208 2.6E1
3208 3209 -1
3208 3223 -1
3208 3224 -1
3208 3225 -1
3208 3447 -1
3208 3448 -1
3208 3449 -1
3208 3463 -1
3208 3464 -1
3208 3465 -1
3208 3479 -1
3208 3480 -1
3208 3481 -1
3209 3209 2.6E1
3209 3210 -1
3209 3224 -1
3209 3225 -1
3209 3226 -1
3209 3448 -1
3209 3449 -1
3209 3450 -1
3209 3464 -1
3209 3465 -1
3209 3466 -1
3209 3480 -1
3209 3481 -1
3209 3482 -1
3210 3210 2.6E1
3210 3211 -1
3210 3225 -1
3210 3226 -1
3210 3227 -1
3210 3449 -1
3210 3450 -1
3210 3451 -1
3210 3465 -1
3210 3466 -1
3210 3467 -1
3210 3481 -1
3210 3482 -1
3210 3483 -1
3211 3211 2.6E1
3211 3212 -1
3211 3226 -1
3211 3227 -1
3211 3228 -1
3211 3450 -1
3211 3451 -1
3211 3452 -1
3211 3466 -1
3211 3467 -1
3211 3468 -1
3211 3482 -1
3211 3483 -1
3211 3484 -1
3212 3212 2.6E1
3212 3213 -1
3212 3227 -1
3212 3228 -1
3212 3229 -1
3212 3451 -1
3212 3452 -1
3212 3453 -1
3212 3467 -1
3212 3468 -1
3212 3469 -1
3212 3483 -1
3212 3484 -1
3212 3485 -1
3213 3213 2.6E1
3213 3214 -1
3213 3228 -1
3213 3229 -1
3213 3230 -1
3213 3452 -1
3213 3453 -1
3213 3454 -1
3213 3468 -1
3213 3469 -1
3213 3470 -1
3213 3484 -1
3213 3485 -1
3213 3486 -1
3214 3214 2.6E1
3214 3215 -1
3214 3229 -1
3214 3230 -1
3214 3231 -1
3214 3453 -1
3214 3454 -1
3214 3455 -1
3214 3469 -1
3214 3470 -1
3214 3471 -1
3214 3485 -1
3214 3486 -1
3214 3487 -1
3215 3215 2.6E1
3215 3216 -1
3215 3230 -1
3215 3231 -1
3215 3232 -1
3215 3454 -1
3215 3455 -1
3215 3456 -1
3215 3470 -1
3215 3471 -1
3215 3472 -1
3215 3486 -1
3215 3487 -1
3215 3488 -1
3216 3216 2.6E1
3216 3231 -1
3216 3232 -1
3216 3455 -1
3216 3456 -1
3216 3471 -1
3216 3472 -1
3216 3487 -1
3216 3488 -1
3217 3217 2.6E1
3217 3218 -1
3217 3233 -1
3217 3234 -1
3217 3457 -1
3217 3458 -1
3217 3473 -1
3217 3474 -1
3217 3489 -1
3217 3490 -1
3218 3218 2.6E1
3218 3219 -1
3218 3233 -1
3218 3234 -1
3218 3235 -1
3218 3457 -1
3218 3458 -1
3218 3459 -1
3218 3473 -1
3218 3474 -1
3218 3475 -1
3218 3489 -1
3218 3490 -1
3218 3491 -1
3219 3219 2.6E1
3219 3220 -1
3219 3234 -1
3219 3235 -1
3219 3236 -1
3219 3458 -1
3219 3459 -1
3219 3460 -1
3219 3474 -1
3219 3475 -1
3219 3476 -1
3219 3490 -1
3219 3491 -1
3219 3492 -1
3220 3220 2.6E1
3220 3221 -1
3220 3235 -1
3220 3236 -1
3220 3237 -1
3220 3459 -1
3220 3460 -1
3220 3461 -1
3220 3475 -1
3220 3476 -1
3220 3477 -1
3220 3491 -1
3220 3492 -1
3220 3493 -1
3221 3221 2.6E1
3221 3222 -1
3221 3236 -1
3221 3237 -1
3221 3238 -1
3221 3460 -1
3221 3461 -1
3221 3462 -1
3221 3476 -1
3221 3477 -1
3221 3478 -1
3221 3492 -1
3221 3493 -1
3221 3494 -1
3222 3222 2.6E1
3222 3223 -1
3222 3237 -1
3222 3238 -1
3222 3239 -1
3222 3461 -1
3222 3462 -1
3222 3463 -1
3222 3477 -1
3222 3478 -1
3222 3479 -1
3222 3493 -1
3222 3494 -1
3222 3495 -1
3223 3223 2.6E1
3223 3224 -1
3223 3238 -1
3223 3239 -1
3223 3240 -1
3223 3462 -1
3223 3463 -1
3223 3464 -1
3223 3478 -1
3223 3479 -1
3223 3480 -1
3223 3494 -1
3223 3495 -1
3223 3496 -1
3224 3224 2.6E1
3224 3225 -1
3224 3239 -1
3224 3240 -1
3224 3241 -1
3224 3463 -1
3224 3464 -1
3224 3465 -1
3224 3479 -1
3224 3480 -1
3224 3481 -1
3224 3495 -1
3224 3496 -1
3224 3497 -1
3225 3225 2.6E1
3225 3226 -1
3225 3240 -1
3225 3241 -1
3225 3242 -1
3225 3464 -1
3225 3465 -1
3225 3466 -1
3225 3480 -1
3225 3481 -1
3225 3482 -1
3225 3496 -1
3225 3497 -1
3225 3498 -1
3226 3226 2.6E1
3226 3227 -1
3226 3241 -1
3226 3242 -1
3226 3243 -1
3226 3465 -1
3226 3466 -1
3226 3467 -1
3226 3481 -1
3226 3482 -1
3226 3483 -1
3226 3497 -1
3226 3498 -1
3226 3499 -1
3227 3227 2.6E1
3227 3228 -1
3227 3242 -1
3227 3243 -1
3227 3244 -1
3227 3466 -1
3227 3467 -1
3227 3468 -1
3227 3482 -1
3227 3483 -1
3227 3484 -1
3227 3498 -1
3227 3499 -1
3227 3500 -1
3228 3228 2.6E1
3228 3229 -1
3228 3243 -1
3228 3244 -1
3228 3245 -1
3228 3467 -1
3228 3468 -1
3228 3469 -1
3228 3483 -1
3228 3484 -1
3228 3485 -1
3228 3499 -1
3228 3500 -1
3228 3501 -1
3229 3229 2.6E1
3229 3230 -1
3229 3244 -1
3229 3245 -1
3229 3246 -1
3229 3468 -1
3229 3469 -1
3229 3470 -1
3229 3484 -1
3229 3485 -1
3229 3486 -1
3229 3500 -1
3229 3501 -1
3229 3502 -1
3230 3230 2.6E1
3230 3231 -1
3230 3245 -1
3230 3246 -1
3230 3247 -1
3230 3469 -1
3230 3470 -1
3230 3471 -1
3230 3485 -1
3230 3486 -1
3230 3487 -1
3230 3501 -1
3230 3502 -1
3230 3503 -1
3231 3231 2.6E1
3231 3232 -1
3231 3246 -1
3231 3247 -1
3231 3248 -1
3231 3470 -1
3231 3471 -1
3231 3472 -1
3231 3486 -1
3231 3487 -1
3231 3488 -1
3231 3502 -1
3231 3503 -1
3231 3504 -1
3232 3232 2.6E1
3232 3247 -1
3232 3248 -1
3232 3471 -1
3232 3472 -1
3232 3487 -1
3232 3488 -1
3232 3503 -1
3232 3504 -1
3233 3233 2.6E1
3233 3234 -1
3233 3249 -1
3233 3250 -1
3233 3473 -1
3233 3474 -1
3233 3489 -1
3233 3490 -1
3233 3505 -1
3233 3506 -1
3234 3234 2.6E1
3234 3235 -1
3234 3249 -1
3234 3250 -1
3234 3251 -1
3234 3473 -1
3234 3474 -1
3234 3475 -1
3234 3489 -1
3234 3490 -1
3234 3491 -1
3234 3505 -1
3234 3506 -1
3234 3507 -1
3235 3235 2.6E1
3235 3236 -1
3235 3250 -1
3235 3251 -1
3235 3252 -1
3235 3474 -1
3235 3475 -1
3235 3476 -1
3235 3490 -1
3235 3491 -1
3235 3492 -1
3235 3506 -1
3235 3507 -1
3235 3508 -1
3236 3236 2.6E1
3236 3237 -1
3236 3251 -1
3236 3252 -1
3236 3253 -1
3236 3475 -1
3236 3476 -1
3236 3477 -1
3236 3491 -1
3236 3492 -1
3236 3493 -1
3236 3507 -1
3236 3508 -1
3236 3509 -1
3237 3237 2.6E1
3237 3238 -1
3237 3252 -1
3237 3253 -1
3237 3254 -1
3237 3476 -1
3237 3477 -1
3237 3478 -1
3237 3492 -1
3237 3493 -1
3237 3494 -1
3237 3508 -1
3237 3509 -1
3237 3510 -1
3238 3238 2.6E1
3238 3239 -1
3238 3253 -1
3238 3254 -1
3238 3255 -1
3238 3477 -1
3238 3478 -1
3238 3479 -1
3238 3493 -1
3238 3494 -1
3238 3495 -1
3238 3509 -1
3238 3510 -1
3238 3511 -1
3239 3239 2.6E1
3239 3240 -1
3239 3254 -1
3239 3255 -1
3239 3256 -1
3239 3478 -1
3239 3479 -1
3239 3480 -1
3239 3494 -1
3239 3495 -1
3239 3496 -1
3239 3510 -1
3239 3511 -1
3239 3512 -1
3240 3240 2.6E1
3240 3241 -1
3240 3255 -1
3240 3256 -1
3240 3257 -1
3240 3479 -1
3240 3480 -1
3240 3481 -1
3240 3495 -1
3240 3496 -1
3240 3497 -1
3240 3511 -1
3240 3512 -1
3240 3513 -1
3241 3241 2.6E1
3241 3242 -1
3241 3256 -1
3241 3257 -1
3241 3258 -1
3241 3480 -1
3241 3481 -1
3241 3482 -1
3241 3496 -1
3241 3497 -1
3241 3498 -1
3241 3512 -1
3241 3513 -1
3241 3514 -1
3242 3242 2.6E1
3242 3243 -1
3242 3257 -1
3242 3258 -1
3242 3259 -1
3242 3481 -1
3242 3482 -1
3242 3483 -1
3242 3497 -1
3242 3498 -1
3242 3499 -1
3242 3513 -1
3242 3514 -1
3242 3515 -1
3243 3243 2.6E1
3243 3244 -1
3243 3258 -1
3243 3259 -1
3243 3260 -1
3243 3482 -1
3243 3483 -1
3243 3484 -1
3243 3498 -1
3243 3499 -1
3243 3500 -1
3243 3514 -1
3243 3515 -1
3243 3516 -1
3244 3244 2.6E1
3244 3245 -1
3244 3259 -1
3244 3260 -1
3244 3261 -1
3244 3483 -1
3244 3484 -1
3244 3485 -1
3244 3499 -1
3244 3500 -1
3244 3501 -1
3244 3515 -1
3244 3516 -1
3244 3517 -1
3245 3245 2.6E1
3245 3246 -1
3245 3260 -1
3245 3261 -1
3245 3262 -1
3245 3484 -1
3245 3485 -1
3245 3486 -1
3245 3500 -1
3245 3501 -1
3245 3502 -1
3245 3516 -1
3245 3517 -1
3245 3518 -1
3246 3246 2.6E1
3246 3247 -1
3246 3261 -1
3246 3262 -1
3246 3263 -1
3246 3485 -1
3246 3486 -1
3246 3487 -1
3246 3501 -1
3246 3502 -1
3246 3503 -1
3246 3517 -1
3246 3518 -1
3246 3519 -1
3247 3247 2.6E1
3247 3248 -1
3247 3262 -1
3247 3263 -1
3247 3264 -1
3247 3486 -1
3247 3487 -1
3247 3488 -1
3247 3502 -1
3247 3503 -1
3247 3504 -1
3247 3518 -1
3247 3519 -1
3247 3520 -1
3248 3248 2.6E1
3248 3263 -1
3248 3264 -1
3248 3487 -1
3248 3488 -1
3248 3503 -1
3248 3504 -1
3248 3519 -1
3248 3520 -1
3249 3249 2.6E1
3249 3250 -1
3249 3265 -1
3249 3266 -1
3249 3489 -1
3249 3490 -1
3249 3505 -1
3249 3506 -1
3249 3521 -1
3249 3522 -1
3250 3250 2.6E1
3250 3251 -1
3250 3265 -1
3250 3266 -1
3250 3267 -1
3250 3489 -1
3250 3490 -1
3250 3491 -1
3250 3505 -1
3250 3506 -1
3250 3507 -1
3250 3521 -1
3250 3522 -1
3250 3523 -1
3251 3251 2.6E1
3251 3252 -1
3251 3266 -1
3251 3267 -1
3251 3268 -1
3251 3490 -1
3251 3491 -1
3251 3492 -1
3251 3506 -1
3251 3507 -1
3251 3508 -1
3251 3522 -1
3251 3523 -1
3251 3524 -1
3252 3252 2.6E1
3252 3253 -1
3252 3267 -1
3252 3268 -1
3252 3269 -1
3252 3491 -1
3252 3492 -1
3252 3493 -1
3252 3507 -1
3252 3508 -1
3252 3509 -1
3252 3523 -1
3252 3524 -1
3252 3525 -1
3253 3253 2.6E1
3253 3254 -1
3253 3268 -1
3253 3269 -1
3253 3270 -1
3253 3492 -1
3253 3493 -1
3253 3494 -1
3253 3508 -1
3253 3509 -1
3253 3510 -1
3253 3524 -1
3253 3525 -1
3253 3526 -1
3254 3254 2.6E1
3254 3255 -1
3254 3269 -1
3254 3270 -1
3254 3271 -1
3254 3493 -1
3254 3494 -1
3254 3495 -1
3254 3509 -1
3254 3510 -1
3254 3511 -1
3254 3525 -1
3254 3526 -1
3254 3527 -1
3255 3255 2.6E1
3255 3256 -1
3255 3270 -1
3255 3271 -1
3255 3272 -1
3255 3494 -1
3255 3495 -1
3255 3496 -1
3255 3510 -1
3255 3511 -1
3255 3512 -1
3255 3526 -1
3255 3527 -1
3255 3528 -1
3256 3256 2.6E1
3256 3257 -1
3256 3271 -1
3256 3272 -1
3256 3273 -1
3256 3495 -1
3256 3496 -1
3256 3497 -1
3256 3511 -1
3256 3512 -1
3256 3513 -1
3256 3527 -1
3256 3528 -1
3256 3529 -1
3257 3257 2.6E1
3257 3258 -1
3257 3272 -1
3257 3273 -1
3257 3274 -1
3257 3496 -1
3257 3497 -1
3257 3498 -1
3257 3512 -1
3257 3513 -1
3257 3514 -1
3257 3528 -1
3257 3529 -1
3257 3530 -1
3258 3258 2.6E1
3258 3259 -1
3258 3273 -1
3258 3274 -1
3258 3275 -1
3258 3497 -1
3258 3498 -1
3258 3499 -1
3258 3513 -1
3258 3514 -1
3258 3515 -1
3258 3529 -1
3258 3530 -1
3258 3531 -1
3259 3259 2.6E1
3259 3260 -1
3259 3274 -1
3259 3275 -1
3259 3276 -1
3259 3498 -1
3259 3499 -1
3259 3500 -1
3259 3514 -1
3259 3515 -1
3259 3516 -1
3259 3530 -1
3259 3531 -1
3259 3532 -1
3260 3260 2.6E1
3260 3261 -1
3260 3275 -1
3260 3276 -1
3260 3277 -1
3260 3499 -1
3260 3500 -1
3260 3501 -1
3260 3515 -1
3260 3516 -1
3260 3517 -1
3260 3531 -1
3260 3532 -1
3260 3533 -1
3261 3261 2.6E1
3261 3262 -1
3261 3276 -1
3261 3277 -1
3261 3278 -1
3261 3500 -1
3261 3501 -1
3261 3502 -1
3261 3516 -1
3261 3517 -1
3261 3518 -1
3261 3532 -1
3261 3533 -1
3261 3534 -1
3262 3262 2.6E1
3262 3263 -1
3262 3277 -1
3262 3278 -1
3262 3279 -1
3262 3501 -1
3262 3502 -1
3262 3503 -1
3262 3517 -1
3262 3518 -1
3262 3519 -1
3262 3533 -1
3262 3534 -1
3262 3535 -1
3263 3263 2.6E1
3263 3264 -1
3263 3278 -1
3263 3279 -1
3263 3280 -1
3263 3502 -1
3263 3503 -1
3263 3504 -1
3263 3518 -1
3263 3519 -1
3263 3520 -1
3263 3534 -1
3263 3535 -1
3263 3536 -1
3264 3264 2.6E1
3264 3279 -1
3264 3280 -1
3264 3503 -1
3264 3504 -1
3264 3519 -1
3264 3520 -1
3264 3535 -1
3264 3536 -1
3265 3265 2.6E1
3265 3266 -1
3265 3281 -1
3265 3282 -1
3265 3505 -1
3265 3506 -1
3265 3521 -1
3265 3522 -1
3265 3537 -1
3265 3538 -1
3266 3266 2.6E1
3266 3267 -1
3266 3281 -1
3266 3282 -1
3266 3283 -1
3266 3505 -1
3266 3506 -1
3266 3507 -1
3266 3521 -1
3266 3522 -1
3266 3523 -1
3266 3537 -1
3266 3538 -1
3266 3539 -1
3267 3267 2.6E1
3267 3268 -1
3267 3282 -1
3267 3283 -1
3267 3284 -1
3267 3506 -1
3267 3507 -1
3267 3508 -1
3267 3522 -1
3267 3523 -1
3267 3524 -1
3267 3538 -1
3267 3539 -1
3267 3540 -1
3268 3268 2.6E1
3268 3269 -1
3268 3283 -1
3268 3284 -1
3268 3285 -1
3268 3507 -1
3268 3508 -1
3268 3509 -1
3268 3523 -1
3268 3524 -1
3268 3525 -1
3268 3539 -1
3268 3540 -1
3268 3541 -1
3269 3269 2.6E1
3269 3270 -1
3269 3284 -1
3269 3285 -1
3269 3286 -1
3269 3508 -1
3269 3509 -1
3269 3510 -1
3269 3524 -1
3269 3525 -1
3269 3526 -1
3269 3540 -1
3269 3541 -1
3269 3542 -1
3270 3270 2.6E1
3270 3271 -1
3270 3285 -1
3270 3286 -1
3270 3287 -1
3270 3509 -1
3270 3510 -1
3270 3511 -1
3270 3525 -1
3270 3526 -1
3270 3527 -1
3270 3541 -1
3270 3542 -1
3270 3543 -1
3271 3271 2.6E1
3271 3272 -1
3271 3286 -1
3271 3287 -1
3271 3288 -1
3271 3510 -1
3271 3511 -1
3271 3512 -1
3271 3526 -1
3271 3527 -1
3271 3528 -1
3271 3542 -1
3271 3543 -1
3271 3544 -1
3272 3272 2.6E1
3272 3273 -1
3272 3287 -1
3272 3288 -1
3272 3289 -1
3272 3511 -1
3272 3512 -1
3272 3513 -1
3272 3527 -1
3272 3528 -1
3272 3529 -1
3272 3543 -1
3272 3544 -1
3272 3545 -1
3273 3273 2.6E1
3273 3274 -1
3273 3288 -1
3273 3289 -1
3273 3290 -1
3273 3512 -1
3273 3513 -1
3273 3514 -1
3273 3528 -1
3273 3529 -1
3273 3530 -1
3273 3544 -1
3273 3545 -1
3273 3546 -1
3274 3274 2.6E1
3274 3275 -1
3274 3289 -1
3274 3290 -1
3274 3291 -1
3274 3513 -1
3274 3514 -1
3274 3515 -1
3274 3529 -1
3274 3530 -1
3274 3531 -1
3274 3545 -1
3274 3546 -1
3274 3547 -1
3275 3275 2.6E1
3275 3276 -1
3275 3290 -1
3275 3291 -1
3275 3292 -1
3275 3514 -1
3275 3515 -1
3275 3516 -1
3275 3530 -1
3275 3531 -1
3275 3532 -1
3275 3546 -1
3275 3547 -1
3275 3548 -1
3276 3276 2.6E1
3276 3277 -1
3276 3291 -1
3276 3292 -1
3276 3293 -1
3276 3515 -1
3276 3516 -1
3276 3517 -1
3276 3531 -1
3276 3532 -1
3276 3533 -1
3276 3547 -1
3276 3548 -1
3276 3549 -1
3277 3277 2.6E1
3277 3278 -1
3277 3292 -1
3277 3293 -1
3277 3294 -1
3277 3516 -1
3277 3517 -1
3277 3518 -1
3277 3532 -1
3277 3533 -1
3277 3534 -1
3277 3548 -1
3277 3549 -1
3277 3550 -1
3278 3278 2.6E1
3278 3279 -1
3278 3293 -1
3278 3294 -1
3278 3295 -1
3278 3517 -1
3278 3518 -1
3278 3519 -1
3278 3533 -1
3278 3534 -1
3278 3535 -1
3278 3549 -1
3278 3550 -1
3278 3551 -1
3279 3279 2.6E1
3279 3280 -1
3279 3294 -1
3279 3295 -1
3279 3296 -1
3279 3518 -1
3279 3519 -1
3279 3520 -1
3279 3534 -1
3279 3535 -1
3279 3536 -1
3279 3550 -1
3279 3551 -1
3279 3552 -1
3280 3280 2.6E1
3280 3295 -1
3280 3296 -1
3280 3519 -1
3280 3520 -1
3280 3535 -1
3280 3536 -1
3280 3551 -1
3280 3552 -1
3281 3281 2.6E1
3281 3282 -1
3281 3297 -1
3281 3298 -1
3281 3521 -1
3281 3522 -1
3281 3537 -1
3281 3538 -1
3281 3553 -1
3281 3554 -1
3282 3282 2.6E1
3282 3283 -1
3282 3297 -1
3282 3298 -1
3282 3299 -1
3282 3521 -1
3282 3522 -1
3282 3523 -1
3282 3537 -1
3282 3538 -1
3282 3539 -1
3282 3553 -1
3282 3554 -1
3282 3555 -1
3283 3283 2.6E1
3283 3284 -1
3283 3298 -1
3283 3299 -1
3283 3300 -1
3283 3522 -1
3283 3523 -1
3283 3524 -1
3283 3538 -1
3283 3539 -1
3283 3540 -1
3283 3554 -1
3283 3555 -1
3283 3556 -1
3284 3284 2.6E1
3284 3285 -1
3284 3299 -1
3284 3300 -1
3284 3301 -1
3284 3523 -1
3284 3524 -1
3284 3525 -1
3284 3539 -1
3284 3540 -1
3284 3541 -1
3284 3555 -1
3284 3556 -1
3284 3557 -1
3285 3285 2.6E1
3285 3286 -1
3285 3300 -1
3285 3301 -1
3285 3302 -1
3285 3524 -1
3285 3525 -1
3285 3526 -1
3285 3540 -1
3285 3541 -1
3285 3542 -1
3285 3556 -1
3285 3557 -1
3285 3558 -1
3286 3286 2.6E1
3286 3287 -1
3286 3301 -1
3286 3302 -1
3286 3303 -1
3286 3525 -1
3286 3526 -1
3286 3527 -1
3286 3541 -1
3286 3542 -1
3286 3543 -1
3286 3557 -1
3286 3558 -1
3286 3559 -1
3287 3287 2.6E1
3287 3288 -1
3287 3302 -1
3287 3303 -1
3287 3304 -1
3287 3526 -1
3287 3527 -1
3287 3528 -1
3287 3542 -1
3287 3543 -1
3287 3544 -1
3287 3558 -1
3287 3559 -1
3287 3560 -1
3288 3288 2.6E1
3288 3289 -1
3288 3303 -1
3288 3304 -1
3288 3305 -1
3288 3527 -1
3288 3528 -1
3288 3529 -1
3288 3543 -1
3288 3544 -1
3288 3545 -1
3288 3559 -1
3288 3560 -1
3288 3561 -1
3289 3289 2.6E1
3289 3290 -1
3289 3304 -1
3289 3305 -1
3289 3306 -1
3289 3528 -1
3289 3529 -1
3289 3530 -1
3289 3544 -1
3289 3545 -1
3289 3546 -1
3289 3560 -1
3289 3561 -1
3289 3562 -1
3290 3290 2.6E1
3290 3291 -1
3290 3305 -1
3290 3306 -1
3290 3307 -1
3290 3529 -1
3290 3530 -1
3290 3531 -1
3290 3545 -1
3290 3546 -1
3290 3547 -1
3290 3561 -1
3290 3562 -1
3290 3563 -1
3291 3291 2.6E1
3291 3292 -1
3291 3306 -1
3291 3307 -1
3291 3308 -1
3291 3530 -1
3291 3531 -1
3291 3532 -1
3291 3546 -1
3291 3547 -1
3291 3548 -1
3291 3562 -1
3291 3563 -1
3291 3564 -1
3292 3292 2.6E1
3292 3293 -1
3292 3307 -1
3292 3308 -1
3292 3309 -1
3292 3531 -1
3292 3532 -1
3292 3533 -1
3292 3547 -1
3292 3548 -1
3292 3549 -1
3292 3563 -1
3292 3564 -1
3292 3565 -1
3293 3293 2.6E1
3293 3294 -1
3293 3308 -1
3293 3309 -1
3293 3310 -1
3293 3532 -1
3293 3533 -1
3293 3534 -1
3293 3548 -1
3293 3549 -1
3293 3550 -1
3293 3564 -1
3293 3565 -1
3293 3566 -1
3294 3294 2.6E1
3294 3295 -1
3294 3309 -1
3294 3310 -1
3294 3311 -1
3294 3533 -1
3294 3534 -1
3294 3535 -1
3294 3549 -1
3294 3550 -1
3294 3551 -1
3294 3565 -1
3294 3566 -1
3294 3567 -1
3295 3295 2.6E1
3295 3296 -1
3295 3310 -1
3295 3311 -1
3295 3312 -1
3295 3534 -1
3295 3535 -1
3295 3536 -1
3295 3550 -1
3295 3551 -1
3295 3552 -1
3295 3566 -1
3295 3567 -1
3295 3568 -1
3296 3296 2.6E1
3296 3311 -1
3296 3312 -1
3296 3535 -1
3296 3536 -1
3296 3551 -1
3296 3552 -1
3296 3567 -1
3296 3568 -1
3297 3297 2.6E1
3297 3298 -1
3297 3313 -1
3297 3314 -1
3297 3537 -1
3297 3538 -1
3297 3553 -1
3297 3554 -1
3297 3569 -1
3297 3570 -1
3298 3298 2.6E1
3298 3299 -1
3298 3313 -1
3298 3314 -1
3298 3315 -1
3298 3537 -1
3298 3538 -1
3298 3539 -1
3298 3553 -1
3298 3554 -1
3298 3555 -1
3298 3569 -1
3298 3570 -1
3298 3571 -1
3299 3299 2.6E1
3299 3300 -1
3299 3314 -1
3299 3315 -1
3299 3316 -1
3299 3538 -1
3299 3539 -1
3299 3540 -1
3299 3554 -1
3299 3555 -1
3299 3556 -1
3299 3570 -1
3299 3571 -1
3299 3572 -1
3300 3300 2.6E1
3300 3301 -1
3300 3315 -1
3300 3316 -1
3300 3317 -1
3300 3539 -1
3300 3540 -1
3300 3541 -1
3300 3555 -1
3300 3556 -1
3300 3557 -1
3300 3571 -1
3300 3572 -1
3300 3573 -1
3301 3301 2.6E1
3301 3302 -1
3301 3316 -1
3301 3317 -1
3301 3318 -1
3301 3540 -1
3301 3541 -1
3301 3542 -1
3301 3556 -1
3301 3557 -1
3301 3558 -1
3301 3572 -1
3301 3573 -1
3301 3574 -1
3302 3302 2.6E1
3302 3303 -1
3302 3317 -1
3302 3318 -1
3302 3319 -1
3302 3541 -1
3302 3542 -1
3302 3543 -1
3302 3557 -1
3302 3558 -1
3302 3559 -1
3302 3573 -1
3302 3574 -1
3302 3575 -1
3303 3303 2.6E1
3303 3304 -1
3303 3318 -1
3303 3319 -1
3303 3320 -1
3303 3542 -1
3303 3543 -1
3303 3544 -1
3303 3558 -1
3303 3559 -1
3303 3560 -1
3303 3574 -1
3303 3575 -1
3303 3576 -1
3304 3304 2.6E1
3304 3305 -1
3304 3319 -1
3304 3320 -1
3304 3321 -1
3304 3543 -1
3304 3544 -1
3304 3545 -1
3304 3559 -1
3304 3560 -1
3304 3561 -1
3304 3575 -1
3304 3576 -1
3304 3577 -1
3305 3305 2.6E1
3305 3306 -1
3305 3320 -1
3305 3321 -1
3305 3322 -1
3305 3544 -1
3305 3545 -1
3305 3546 -1
3305 3560 -1
3305 3561 -1
3305 3562 -1
3305 3576 -1
3305 3577 -1
3305 3578 -1
3306 3306 2.6E1
3306 3307 -1
3306 3321 -1
3306 3322 -1
3306 3323 -1
3306 3545 -1
3306 3546 -1
3306 3547 -1
3306 3561 -1
3306 3562 -1
3306 3563 -1
3306 3577 -1
3306 3578 -1
3306 3579 -1
3307 3307 2.6E1
3307 3308 -1
3307 3322 -1
3307 3323 -1
3307 3324 -1
3307 3546 -1
3307 3547 -1
3307 3548 -1
3307 3562 -1
3307 3563 -1
3307 3564 -1
3307 3578 -1
3307 3579 -1
3307 3580 -1
3308 3308 2.6E1
3308 3309 -1
3308 3323 -1
3308 3324 -1
3308 3325 -1
3308 3547 -1
3308 3548 -1
3308 3549 -1
3308 3563 -1
3308 3564 -1
3308 3565 -1
3308 3579 -1
3308 3580 -1
3308 3581 -1
3309 3309 2.6E1
3309 3310 -1
3309 3324 -1
3309 3325 -1
3309 3326 -1
3309 3548 -1
3309 3549 -1
3309 3550 -1
3309 3564 -1
3309 3565 -1
3309 3566 -1
3309 3580 -1
3309 3581 -1
3309 3582 -1
3310 3310 2.6E1
3310 3311 -1
3310 3325 -1
3310 3326 -1
3310 3327 -1
3310 3549 -1
3310 3550 -1
3310 3551 -1
3310 3565 -1
3310 3566 -1
3310 3567 -1
3310 3581 -1
3310 3582 -1
3310 3583 -1
3311 3311 2.6E1
3311 3312 -1
3311 3326 -1
3311 3327 -1
3311 3328 -1
3311 3550 -1
3311 3551 -1
3311 3552 -1
3311 3566 -1
3311 3567 -1
3311 3568 -1
3311 3582 -1
3311 3583 -1
3311 3584 -1
3312 3312 2.6E1
3312 3327 -1
3312 3328 -1
3312 3551 -1
3312 3552 -1
3312 3567 -1
3312 3568 -1
3312 3583 -1
3312 3584 -1
3313 3313 2.6E1
3313 3314 -1
3313 3553 -1
3313 3554 -1
3313 3569 -1
3313 3570 -1
3314 3314 2.6E1
3314 3315 -1
3314 3553 -1
3314 3554 -1
3314 3555 -1
3314 3569 -1
3314 3570 -1
3314 3571 -1
3315 3315 2.6E1
3315 3316 -1
3315 3554 -1
3315 3555 -1
3315 3556 -1
3315 3570 -1
3315 3571 -1
3315 3572 -1
3316 3316 2.6E1
3316 3317 -1
3316 3555 -1
3316 3556 -1
3316 3557 -1
3316 3571 -1
3316 3572 -1
3316 3573 -1
3317 3317 2.6E1
3317 3318 -1
3317 3556 -1
3317 3557 -1
3317 3558 -1
3317 3572 -1
3317 3573 -1
3317 3574 -1
3318 3318 2.6E1
3318 3319 -1
3318 3557 -1
3318 3558 -1
3318 3559 -1
3318 3573 -1
3318 3574 -1
3318 3575 -1
3319 3319 2.6E1
3319 3320 -1
3319 3558 -1
3319 3559 -1
3319 3560 -1
3319 3574 -1
3319 3575 -1
3319 3576 -1
3320 3320 2.6E1
3320 3321 -1
3320 3559 -1
3320 3560 -1
3320 3561 -1
3320 3575 -1
3320 3576 -1
3320 3577 -1
3321 3321 2.6E1
3321 3322 -1
3321 3560 -1
3321 3561 -1
3321 3562 -1
3321 3576 -1
3321 3577 -1
3321 3578 -1
3322 3322 2.6E1
3322 3323 -1
3322 3561 -1
3322 3562 -1
3322 3563 -1
3322 3577 -1
3322 3578 -1
3322 3579 -1
3323 3323 2.6E1
3323 3324 -1
3323 3562 -1
3323 3563 -1
3323 3564 -1
3323 3578 -1
3323 3579 -1
3323 3580 -1
3324 3324 2.6E1
3324 3325 -1
3324 3563 -1
3324 3564 -1
3324 3565 -1
3324 3579 -1
3324 3580 -1
3324 3581 -1
3325 3325 2.6E1
3325 3326 -1
3325 3564 -1
3325 3565 -1
3325 3566 -1
3325 3580 -1
3325 3581 -1
3325 3582 -1
3326 3326 2.6E1
3326 3327 -1
3326 3565 -1
3326 3566 -1
3326 3567 -1
3326 3581 -1
3326 3582 -1
3326 3583 -1
3327 3327 2.6E1
3327 3328 -1
3327 3566 -1
3327 3567 -1
3327 3568 -1
3327 3582 -1
3327 3583 -1
3327 3584 -1
3328 3328 2.6E1
3328 3567 -1
3328 3568 -1
3328 3583 -1
3328 3584 -1
3329 3329 2.6E1
3329 3330 -1
3329 3345 -1
3329 3346 -1
3329 3585 -1
3329 3586 -1
3329 3601 -1
3329 3602 -1
3330 3330 2.6E1
3330 3331 -1
3330 3345 -1
3330 3346 -1
3330 3347 -1
3330 3585 -1
3330 3586 -1
3330 3587 -1
3330 3601 -1
3330 3602 -1
3330 3603 -1
3331 3331 2.6E1
3331 3332 -1
3331 3346 -1
3331 3347 -1
3331 3348 -1
3331 3586 -1
3331 3587 -1
3331 3588 -1
3331 3602 -1
3331 3603 -1
3331 3604 -1
3332 3332 2.6E1
3332 3333 -1
3332 3347 -1
3332 3348 -1
3332 3349 -1
3332 3587 -1
3332 3588 -1
3332 3589 -1
3332 3603 -1
3332 3604 -1
3332 3605 -1
3333 3333 2.6E1
3333 3334 -1
3333 3348 -1
3333 3349 -1
3333 3350 -1
3333 3588 -1
3333 3589 -1
3333 3590 -1
3333 3604 -1
3333 3605 -1
3333 3606 -1
3334 3334 2.6E1
3334 3335 -1
3334 3349 -1
3334 3350 -1
3334 3351 -1
3334 3589 -1
3334 3590 -1
3334 3591 -1
3334 3605 -1
3334 3606 -1
3334 3607 -1
3335 3335 2.6E1
3335 3336 -1
3335 3350 -1
3335 3351 -1
3335 3352 -1
3335 3590 -1
3335 3591 -1
3335 3592 -1
3335 3606 -1
3335 3607 -1
3335 3608 -1
3336 3336 2.6E1
3336 3337 -1
3336 3351 -1
3336 3352 -1
3336 3353 -1
3336 3591 -1
3336 3592 -1
3336 3593 -1
3336 3607 -1
3336 3608 -1
3336 3609 -1
3337 3337 2.6E1
3337 3338 -1
3337 3352 -1
3337 3353 -1
3337 3354 -1
3337 3592 -1
3337 3593 -1
3337 3594 -1
3337 3608 -1
3337 3609 -1
3337 3610 -1
3338 3338 2.6E1
3338 3339 -1
3338 3353 -1
3338 3354 -1
3338 3355 -1
3338 3593 -1
3338 3594 -1
3338 3595 -1
3338 3609 -1
3338 3610 -1
3338 3611 -1
3339 3339 2.6E1
3339 3340 -1
3339 3354 -1
3339 3355 -1
3339 3356 -1
3339 3594 -1
3339 3595 -1
3339 3596 -1
3339 3610 -1
3339 3611 -1
3339 3612 -1
3340 3340 2.6E1
3340 3341 -1
3340 3355 -1
3340 3356 -1
3340 3357 -1
3340 3595 -1
3340 3596 -1
3340 3597 -1
3340 3611 -1
3340 3612 -1
3340 3613 -1
3341 3341 2.6E1
3341 3342 -1
3341 3356 -1
3341 3357 -1
3341 3358 -1
3341 3596 -1
3341 3597 -1
3341 3598 -1
3341 3612 -1
3341 3613 -1
3341 3614 -1
3342 3342 2.6E1
3342 3343 -1
3342 3357 -1
3342 3358 -1
3342 3359 -1
3342 3597 -1
3342 3598 -1
3342 3599 -1
3342 3613 -1
3342 3614 -1
3342 3615 -1
3343 3343 2.6E1
3343 3344 -1
3343 3358 -1
3343 3359 -1
3343 3360 -1
3343 3598 -1
3343 3599 -1
3343 3600 -1
3343 3614 -1
3343 3615 -1
3343 3616 -1
3344 3344 2.6E1
3344 3359 -1
3344 3360 -1
3344 3599 -1
3344 3600 -1
3344 3615 -1
3344 3616 -1
3345 3345 2.6E1
3345 3346 -1
3345 3361 -1
3345 3362 -1
3345 3585 -1
3345 3586 -1
3345 3601 -1
3345 3602 -1
3345 3617 -1
3345 3618 -1
3346 3346 2.6E1
3346 3347 -1
3346 3361 -1
3346 3362 -1
3346 3363 -1
3346 3585 -1
3346 3586 -1
3346 3587 -1
3346 3601 -1
3346 3602 -1
3346 3603 -1
3346 3617 -1
3346 3618 -1
3346 3619 -1
3347 3347 2.6E1
3347 3348 -1
3347 3362 -1
3347 3363 -1
3347 3364 -1
3347 3586 -1
3347 3587 -1
3347 3588 -1
3347 3602 -1
3347 3603 -1
3347 3604 -1
3347 3618 -1
3347 3619 -1
3347 3620 -1
3348 3348 2.6E1
3348 3349 -1
3348 3363 -1
3348 3364 -1
3348 3365 -1
3348 3587 -1
3348 3588 -1
3348 3589 -1
3348 3603 -1
3348 3604 -1
3348 3605 -1
3348 3619 -1
3348 3620 -1
3348 3621 -1
3349 3349 2.6E1
3349 3350 -1
3349 3364 -1
3349 3365 -1
3349 3366 -1
3349 3588 -1
3349 3589 -1
3349 3590 -1
3349 3604 -1
3349 3605 -1
3349 3606 -1
3349 3620 -1
3349 3621 -1
3349 3622 -1
3350 3350 2.6E1
3350 3351 -1
3350 3365 -1
3350 3366 -1
3350 3367 -1
3350 3589 -1
3350 3590 -1
3350 3591 -1
3350 3605 -1
3350 3606 -1
3350 3607 -1
3350 3621 -1
3350 3622 -1
3350 3623 -1
3351 3351 2.6E1
3351 3352 -1
3351 3366 -1
3351 3367 -1
3351 3368 -1
3351 3590 -1
3351 3591 -1
3351 3592 -1
3351 3606 -1
3351 3607 -1
3351 3608 -1
3351 3622 -1
3351 3623 -1
3351 3624 -1
3352 3352 2.6E1
3352 3353 -1
3352 3367 -1
3352 3368 -1
3352 3369 -1
3352 3591 -1
3352 3592 -1
3352 3593 -1
3352 3607 -1
3352 3608 -1
3352 3609 -1
3352 3623 -1
3352 3624 -1
3352 3625 -1
3353 3353 2.6E1
3353 3354 -1
3353 3368 -1
3353 3369 -1
3353 3370 -1
3353 3592 -1
3353 3593 -1
3353 3594 -1
3353 3608 -1
3353 3609 -1
3353 3610 -1
3353 3624 -1
3353 3625 -1
3353 3626 -1
3354 3354 2.6E1
3354 3355 -1
3354 3369 -1
3354 3370 -1
3354 3371 -1
3354 3593 -1
3354 3594 -1
3354 3595 -1
3354 3609 -1
3354 3610 -1
3354 3611 -1
3354 3625 -1
3354 3626 -1
3354 3627 -1
3355 3355 2.6E1
3355 3356 -1
3355 3370 -1
3355 3371 -1
3355 3372 -1
3355 3594 -1
3355 3595 -1
3355 3596 -1
3355 3610 -1
3355 3611 -1
3355 3612 -1
3355 3626 -1
3355 3627 -1
3355 3628 -1
3356 3356 2.6E1
3356 3357 -1
3356 3371 -1
3356 3372 -1
3356 3373 -1
3356 3595 -1
3356 3596 -1
3356 3597 -1
3356 3611 -1
3356 3612 -1
3356 3613 -1
3356 3627 -1
3356 3628 -1
3356 3629 -1
3357 3357 2.6E1
3357 3358 -1
3357 3372 -1
3357 3373 -1
3357 3374 -1
3357 3596 -1
3357 3597 -1
3357 3598 -1
3357 3612 -1
3357 3613 -1
3357 3614 -1
3357 3628 -1
3357 3629 -1
3357 3630 -1
3358 3358 2.6E1
3358 3359 -1
3358 3373 -1
3358 3374 -1
3358 3375 -1
3358 3597 -1
3358 3598 -1
3358 3599 -1
3358 3613 -1
3358 3614 -1
3358 3615 -1
3358 3629 -1
3358 3630 -1
3358 3631 -1
3359 3359 2.6E1
3359 3360 -1
3359 3374 -1
3359 3375 -1
3359 3376 -1
3359 3598 -1
3359 3599 -1
3359 3600 -1
3359 3614 -1
3359 3615 -1
3359 3616 -1
3359 3630 -1
3359 3631 -1
3359 3632 -1
3360 3360 2.6E1
3360 3375 -1
3360 3376 -1
3360 3599 -1
3360 3600 -1
3360 3615 -1
3360 3616 -1
3360 3631 -1
3360 3632 -1
3361 3361 2.6E1
3361 3362 -1
3361 3377 -1
3361 3378 -1
3361 3601 -1
3361 3602 -1
3361 3617 -1
3361 3618 -1
3361 3633 -1
3361 3634 -1
3362 3362 2.6E1
3362 3363 -1
3362 3377 -1
3362 3378 -1
3362 3379 -1
3362 3601 -1
3362 3602 -1
3362 3603 -1
3362 3617 -1
3362 3618 -1
3362 3619 -1
3362 3633 -1
3362 3634 -1
3362 3635 -1
3363 3363 2.6E1
3363 3364 -1
3363 3378 -1
3363 3379 -1
3363 3380 -1
3363 3602 -1
3363 3603 -1
3363 3604 -1
3363 3618 -1
3363 3619 -1
3363 3620 -1
3363 3634 -1
3363 3635 -1
3363 3636 -1
3364 3364 2.6E1
3364 3365 -1
3364 3379 -1
3364 3380 -1
3364 3381 -1
3364 3603 -1
3364 3604 -1
3364 3605 -1
3364 3619 -1
3364 3620 -1
3364 3621 -1
3364 3635 -1
3364 3636 -1
3364 3637 -1
3365 3365 2.6E1
3365 3366 -1
3365 3380 -1
3365 3381 -1
3365 3382 -1
3365 3604 -1
3365 3605 -1
3365 3606 -1
3365 3620 -1
3365 3621 -1
3365 3622 -1
3365 3636 -1
3365 3637 -1
3365 3638 -1
3366 3366 2.6E1
3366 3367 -1
3366 3381 -1
3366 3382 -1
3366 3383 -1
3366 3605 -1
3366 3606 -1
3366 3607 -1
3366 3621 -1
3366 3622 -1
3366 3623 -1
3366 3637 -1
3366 3638 -1
3366 3639 -1
3367 3367 2.6E1
3367 3368 -1
3367 3382 -1
3367 3383 -1
3367 3384 -1
3367 3606 -1
3367 3607 -1
3367 3608 -1
3367 3622 -1
3367 3623 -1
3367 3624 -1
3367 3638 -1
3367 3639 -1
3367 3640 -1
3368 3368 2.6E1
3368 3369 -1
3368 3383 -1
3368 3384 -1
3368 3385 -1
3368 3607 -1
3368 3608 -1
3368 3609 -1
3368 3623 -1
3368 3624 -1
3368 3625 -1
3368 3639 -1
3368 3640 -1
3368 3641 -1
3369 3369 2.6E1
3369 3370 -1
3369 3384 -1
3369 3385 -1
3369 3386 -1
3369 3608 -1
3369 3609 -1
3369 3610 -1
3369 3624 -1
3369 3625 -1
3369 3626 -1
3369 3640 -1
3369 3641 -1
3369 3642 -1
3370 3370 2.6E1
3370 3371 -1
3370 3385 -1
3370 3386 -1
3370 3387 -1
3370 3609 -1
3370 3610 -1
3370 3611 -1
3370 3625 -1
3370 3626 -1
3370 3627 -1
3370 3641 -1
3370 3642 -1
3370 3643 -1
3371 3371 2.6E1
3371 3372 -1
3371 3386 -1
3371 3387 -1
3371 3388 -1
3371 3610 -1
3371 3611 -1
3371 3612 -1
3371 3626 -1
3371 3627 -1
3371 3628 -1
3371 3642 -1
3371 3643 -1
3371 3644 -1
3372 3372 2.6E1
3372 3373 -1
3372 3387 -1
3372 3388 -1
3372 3389 -1
3372 3611 -1
3372 3612 -1
3372 3613 -1
3372 3627 -1
3372 3628 -1
3372 3629 -1
3372 3643 -1
3372 3644 -1
3372 3645 -1
3373 3373 2.6E1
3373 3374 -1
3373 3388 -1
3373 3389 -1
3373 3390 -1
3373 3612 -1
3373 3613 -1
3373 3614 -1
3373 3628 -1
3373 3629 -1
3373 3630 -1
3373 3644 -1
3373 3645 -1
3373 3646 -1
3374 3374 2.6E1
3374 3375 -1
3374 3389 -1
3374 3390 -1
3374 3391 -1
3374 3613 -1
3374 3614 -1
3374 3615 -1
3374 3629 -1
3374 3630 -1
3374 3631 -1
3374 3645 -1
3374 3646 -1
3374 3647 -1
3375 3375 2.6E1
3375 3376 -1
3375 3390 -1
3375 3391 -1
3375 3392 -1
3375 3614 -1
3375 3615 -1
3375 3616 -1
3375 3630 -1
3375 3631 -1
3375 3632 -1
3375 3646 -1
3375 3647 -1
3375 3648 -1
3376 3376 2.6E1
3376 3391 -1
3376 3392 -1
3376 3615 -1
3376 3616 -1
3376 3631 -1
3376 3632 -1
3376 3647 -1
3376 3648 -1
3377 3377 2.6E1
3377 3378 -1
3377 3393 -1
3377 3394 -1
3377 3617 -1
3377 3618 -1
3377 3633 -1
3377 3634 -1
3377 3649 -1
3377 3650 -1
3378 3378 2.6E1
3378 3379 -1
3378 3393 -1
3378 3394 -1
3378 3395 -1
3378 3617 -1
3378 3618 -1
3378 3619 -1
3378 3633 -1
3378 3634 -1
3378 3635 -1
3378 3649 -1
3378 3650 -1
3378 3651 -1
3379 3379 2.6E1
3379 3380 -1
3379 3394 -1
3379 3395 -1
3379 3396 -1
3379 3618 -1
3379 3619 -1
3379 3620 -1
3379 3634 -1
3379 3635 -1
3379 3636 -1
3379 3650 -1
3379 3651 -1
3379 3652 -1
3380 3380 2.6E1
3380 3381 -1
3380 3395 -1
3380 3396 -1
3380 3397 -1
3380 3619 -1
3380 3620 -1
3380 3621 -1
3380 3635 -1
3380 3636 -1
3380 3637 -1
3380 3651 -1
3380 3652 -1
3380 3653 -1
3381 3381 2.6E1
3381 3382 -1
3381 3396 -1
3381 3397 -1
3381 3398 -1
3381 3620 -1
3381 3621 -1
3381 3622 -1
3381 3636 -1
3381 3637 -1
3381 3638 -1
3381 3652 -1
3381 3653 -1
3381 3654 -1
3382 3382 2.6E1
3382 3383 -1
3382 3397 -1
3382 3398 -1
3382 3399 -1
3382 3621 -1
3382 3622 -1
3382 3623 -1
3382 3637 -1
3382 3638 -1
3382 3639 -1
3382 3653 -1
3382 3654 -1
3382 3655 -1
3383 3383 2.6E1
3383 3384 -1
3383 3398 -1
3383 3399 -1
3383 3400 -1
3383 3622 -1
3383 3623 -1
3383 3624 -1
3383 3638 -1
3383 3639 -1
3383 3640 -1
3383 3654 -1
3383 3655 -1
3383 3656 -1
3384 3384 2.6E1
3384 3385 -1
3384 3399 -1
3384 3400 -1
3384 3401 -1
3384 3623 -1
3384 3624 -1
3384 3625 -1
3384 3639 -1
3384 3640 -1
3384 3641 -1
3384 3655 -1
3384 3656 -1
3384 3657 -1
3385 3385 2.6E1
3385 3386 -1
3385 3400 -1
3385 3401 -1
3385 3402 -1
3385 3624 -1
3385 3625 -1
3385 3626 -1
3385 3640 -1
3385 3641 -1
3385 3642 -1
3385 3656 -1
3385 3657 -1
3385 3658 -1
3386 3386 2.6E1
3386 3387 -1
3386 3401 -1
3386 3402 -1
3386 3403 -1
3386 3625 -1
3386 3626 -1
3386 3627 -1
3386 3641 -1
3386 3642 -1
3386 3643 -1
3386 3657 -1
3386 3658 -1
3386 3659 -1
3387 3387 2.6E1
3387 3388 -1
3387 3402 -1
3387 3403 -1
3387 3404 -1
3387 3626 -1
3387 3627 -1
3387 3628 -1
3387 3642 -1
3387 3643 -1
3387 3644 -1
3387 3658 -1
3387 3659 -1
3387 3660 -1
3388 3388 2.6E1
3388 3389 -1
3388 3403 -1
3388 3404 -1
3388 3405 -1
3388 3627 -1
3388 3628 -1
3388 3629 -1
3388 3643 -1
3388 3644 -1
3388 3645 -1
3388 3659 -1
3388 3660 -1
3388 3661 -1
3389 3389 2.6E1
3389 3390 -1
3389 3404 -1
3389 3405 -1
3389 3406 -1
3389 3628 -1
3389 3629 -1
3389 3630 -1
3389 3644 -1
3389 3645 -1
3389 3646 -1
3389 3660 -1
3389 3661 -1
3389 3662 -1
3390 3390 2.6E1
3390 3391 -1
3390 3405 -1
3390 3406 -1
3390 3407 -1
3390 3629 -1
3390 3630 -1
3390 3631 -1
3390 3645 -1
3390 3646 -1
3390 3647 -1
3390 3661 -1
3390 3662 -1
3390 3663 -1
3391 3391 2.6E1
3391 3392 -1
3391 3406 -1
3391 3407 -1
3391 3408 -1
3391 3630 -1
3391 3631 -1
3391 3632 -1
3391 3646 -1
3391 3647 -1
3391 3648 -1
3391 3662 -1
3391 3663 -1
3391 3664 -1
3392 3392 2.6E1
3392 3407 -1
3392 3408 -1
3392 3631 -1
3392 3632 -1
3392 3647 -1
3392 3648 -1
3392 3663 -1
3392 3664 -1
3393 3393 2.6E1
3393 3394 -1
3393 3409 -1
3393 3410 -1
3393 3633 -1
3393 3634 -1
3393 3649 -1
3393 3650 -1
3393 3665 -1
3393 3666 -1
3394 3394 2.6E1
3394 3395 -1
3394 3409 -1
3394 3410 -1
3394 3411 -1
3394 3633 -1
3394 3634 -1
3394 3635 -1
3394 3649 -1
3394 3650 -1
3394 3651 -1
3394 3665 -1
3394 3666 -1
3394 3667 -1
3395 3395 2.6E1
3395 3396 -1
3395 3410 -1
3395 3411 -1
3395 3412 -1
3395 3634 -1
3395 3635 -1
3395 3636 -1
3395 3650 -1
3395 3651 -1
3395 3652 -1
3395 3666 -1
3395 3667 -1
3395 3668 -1
3396 3396 2.6E1
3396 3397 -1
3396 3411 -1
3396 3412 -1
3396 3413 -1
3396 3635 -1
3396 3636 -1
3396 3637 -1
3396 3651 -1
3396 3652 -1
3396 3653 -1
3396 3667 -1
3396 3668 -1
3396 3669 -1
3397 3397 2.6E1
3397 3398 -1
3397 3412 -1
3397 3413 -1
3397 3414 -1
3397 3636 -1
3397 3637 -1
3397 3638 -1
3397 3652 -1
3397 3653 -1
3397 3654 -1
3397 3668 -1
3397 3669 -1
3397 3670 -1
3398 3398 2.6E1
3398 3399 -1
3398 3413 -1
3398 3414 -1
3398 3415 -1
3398 3637 -1
3398 3638 -1
3398 3639 -1
3398 3653 -1
3398 3654 -1
3398 3655 -1
3398 3669 -1
3398 3670 -1
3398 3671 -1
3399 3399 2.6E1
3399 3400 -1
3399 3414 -1
3399 3415 -1
3399 3416 -1
3399 3638 -1
3399 3639 -1
3399 3640 -1
3399 3654 -1
3399 3655 -1
3399 3656 -1
3399 3670 -1
3399 3671 -1
3399 3672 -1
3400 3400 2.6E1
3400 3401 -1
3400 3415 -1
3400 3416 -1
3400 3417 -1
3400 3639 -1
3400 3640 -1
3400 3641 -1
3400 3655 -1
3400 3656 -1
3400 3657 -1
3400 3671 -1
3400 3672 -1
3400 3673 -1
3401 3401 2.6E1
3401 3402 -1
3401 3416 -1
3401 3417 -1
3401 3418 -1
3401 3640 -1
3401 3641 -1
3401 3642 -1
3401 3656 -1
3401 3657 -1
3401 3658 -1
3401 3672 -1
3401 3673 -1
3401 3674 -1
3402 3402 2.6E1
3402 3403 -1
3402 3417 -1
3402 3418 -1
3402 3419 -1
3402 3641 -1
3402 3642 -1
3402 3643 -1
3402 3657 -1
3402 3658 -1
3402 3659 -1
3402 3673 -1
3402 3674 -1
3402 3675 -1
3403 3403 2.6E1
3403 3404 -1
3403 3418 -1
3403 3419 -1
3403 3420 -1
3403 3642 -1
3403 3643 -1
3403 3644 -1
3403 3658 -1
3403 3659 -1
3403 3660 -1
3403 3674 -1
3403 3675 -1
3403 3676 -1
3404 3404 2.6E1
3404 3405 -1
3404 3419 -1
3404 3420 -1
3404 3421 -1
3404 3643 -1
3404 3644 -1
3404 3645 -1
3404 3659 -1
3404 3660 -1
3404 3661 -1
3404 3675 -1
3404 3676 -1
3404 3677 -1
3405 3405 2.6E1
3405 3406 -1
3405 3420 -1
3405 3421 -1
3405 3422 -1
3405 3644 -1
3405 3645 -1
3405 3646 -1
3405 3660 -1
3405 3661 -1
3405 3662 -1
3405 3676 -1
3405 3677 -1
3405 3678 -1
3406 3406 2.6E1
3406 3407 -1
3406 3421 -1
3406 3422 -1
3406 3423 -1
3406 3645 -1
3406 3646 -1
3406 3647 -1
3406 3661 -1
3406 3662 -1
3406 3663 -1
3406 3677 -1
3406 3678 -1
3406 3679 -1
3407 3407 2.6E1
3407 3408 -1
3407 3422 -1
3407 3423 -1
3407 3424 -1
3407 3646 -1
3407 3647 -1
3407 3648 -1
3407 3662 -1
3407 3663 -1
3407 3664 -1
3407 3678 -1
3407 3679 -1
3407 3680 -1
3408 3408 2.6E1
3408 3423 -1
3408 3424 -1
3408 3647 -1
3408 3648 -1
3408 3663 -1
3408 3664 -1
3408 3679 -1
3408 3680 -1
3409 3409 2.6E1
3409 3410 -1
3409 3425 -1
3409 3426 -1
3409 3649 -1
3409 3650 -1
3409 3665 -1
3409 3666 -1
3409 3681 -1
3409 3682 -1
3410 3410 2.6E1
3410 3411 -1
3410 3425 -1
3410 3426 -1
3410 3427 -1
3410 3649 -1
3410 3650 -1
3410 3651 -1
3410 3665 -1
3410 3666 -1
3410 3667 -1
3410 3681 -1
3410 3682 -1
3410 3683 -1
3411 3411 2.6E1
3411 3412 -1
3411 3426 -1
3411 3427 -1
3411 3428 -1
3411 3650 -1
3411 3651 -1
3411 3652 -1
3411 3666 -1
3411 3667 -1
3411 3668 -1
3411 3682 -1
3411 3683 -1
3411 3684 -1
3412 3412 2.6E1
3412 3413 -1
3412 3427 -1
3412 3428 -1
3412 3429 -1
3412 3651 -1
3412 3652 -1
3412 3653 -1
3412 3667 -1
3412 3668 -1
3412 3669 -1
3412 3683 -1
3412 3684 -1
3412 3685 -1
3413 3413 2.6E1
3413 3414 -1
3413 3428 -1
3413 3429 -1
3413 3430 -1
3413 3652 -1
3413 3653 -1
3413 3654 -1
3413 3668 -1
3413 3669 -1
3413 3670 -1
3413 3684 -1
3413 3685 -1
3413 3686 -1
3414 3414 2.6E1
3414 3415 -1
3414 3429 -1
3414 3430 -1
3414 3431 -1
3414 3653 -1
3414 3654 -1
3414 3655 -1
3414 3669 -1
3414 3670 -1
3414 3671 -1
3414 3685 -1
3414 3686 -1
3414 3687 -1
3415 3415 2.6E1
3415 3416 -1
3415 3430 -1
3415 3431 -1
3415 3432 -1
3415 3654 -1
3415 3655 -1
3415 3656 -1
3415 3670 -1
3415 3671 -1
3415 3672 -1
3415 3686 -1
3415 3687 -1
3415 3688 -1
3416 3416 2.6E1
3416 3417 -1
3416 3431 -1
3416 3432 -1
3416 3433 -1
3416 3655 -1
3416 3656 -1
3416 3657 -1
3416 3671 -1
3416 3672 -1
3416 3673 -1
3416 3687 -1
3416 3688 -1
3416 3689 -1
3417 3417 2.6E1
3417 3418 -1
3417 3432 -1
3417 3433 -1
3417 3434 -1
3417 3656 -1
3417 3657 -1
3417 3658 -1
3417 3672 -1
3417 3673 -1
3417 3674 -1
3417 3688 -1
3417 3689 -1
3417 3690 -1
3418 3418 2.6E1
3418 3419 -1
3418 3433 -1
3418 3434 -1
3418 3435 -1
3418 3657 -1
3418 3658 -1
3418 3659 -1
3418 3673 -1
3418 3674 -1
3418 3675 -1
3418 3689 -1
3418 3690 -1
3418 3691 -1
3419 3419 2.6E1
3419 3420 -1
3419 3434 -1
3419 3435 -1
3419 3436 -1
3419 3658 -1
3419 3659 -1
3419 3660 -1
3419 3674 -1
3419 3675 -1
3419 3676 -1
3419 3690 -1
3419 3691 -1
3419 3692 -1
3420 3420 2.6E1
3420 3421 -1
3420 3435 -1
3420 3436 -1
3420 3437 -1
3420 3659 -1
3420 3660 -1
3420 3661 -1
3420 3675 -1
3420 3676 -1
3420 3677 -1
3420 3691 -1
3420 3692 -1
3420 3693 -1
3421 3421 2.6E1
3421 3422 -1
3421 3436 -1
3421 3437 -1
3421 3438 -1
3421 3660 -1
3421 3661 -1
3421 3662 -1
3421 3676 -1
3421 3677 -1
3421 3678 -1
3421 3692 -1
3421 3693 -1
3421 3694 -1
3422 3422 2.6E1
3422 3423 -1
3422 3437 -1
3422 3438 -1
3422 3439 -1
3422 3661 -1
3422 3662 -1
3422 3663 -1
3422 3677 -1
3422 3678 -1
3422 3679 -1
3422 3693 -1
3422 3694 -1
3422 3695 -1
3423 3423 2.6E1
3423 3424 -1
3423 3438 -1
3423 3439 -1
3423 3440 -1
3423 3662 -1
3423 3663 -1
3423 3664 -1
3423 3678 -1
3423 3679 -1
3423 3680 -1
3423 3694 -1
3423 3695 -1
3423 3696 -1
3424 3424 2.6E1
3424 3439 -1
3424 3440 -1
3424 3663 -1
3424 3664 -1
3424 3679 -1
3424 3680 -1
3424 3695 -1
3424 3696 -1
3425 3425 2.6E1
3425 3426 -1
3425 3441 -1
3425 3442 -1
3425 3665 -1
3425 3666 -1
3425 3681 -1
3425 3682 -1
3425 3697 -1
3425 3698 -1
3426 3426 2.6E1
3426 3427 -1
3426 3441 -1
3426 3442 -1
3426 3443 -1
3426 3665 -1
3426 3666 -1
3426 3667 -1
3426 3681 -1
3426 3682 -1
3426 3683 -1
3426 3697 -1
3426 3698 -1
3426 3699 -1
3427 3427 2.6E1
3427 3428 -1
3427 3442 -1
3427 3443 -1
3427 3444 -1
3427 3666 -1
3427 3667 -1
3427 3668 -1
3427 3682 -1
3427 3683 -1
3427 3684 -1
3427 3698 -1
3427 3699 -1
3427 3700 -1
3428 3428 2.6E1
3428 3429 -1
3428 3443 -1
3428 3444 -1
3428 3445 -1
3428 3667 -1
3428 3668 -1
3428 3669 -1
3428 3683 -1
3428 3684 -1
3428 3685 -1
3428 3699 -1
3428 3700 -1
3428 3701 -1
3429 3429 2.6E1
3429 3430 -1
3429 3444 -1
3429 3445 -1
3429 3446 -1
3429 3668 -1
3429 3669 -1
3429 3670 -1
3429 3684 -1
3429 3685 -1
3429 3686 -1
3429 3700 -1
3429 3701 -1
3429 3702 -1
3430 3430 2.6E1
3430 3431 -1
3430 3445 -1
3430 3446 -1
3430 3447 -1
3430 3669 -1
3430 3670 -1
3430 3671 -1
3430 3685 -1
3430 3686 -1
3430 3687 -1
3430 3701 -1
3430 3702 -1
3430 3703 -1
3431 3431 2.6E1
3431 3432 -1
3431 3446 -1
3431 3447 -1
3431 3448 -1
3431 3670 -1
3431 3671 -1
3431 3672 -1
3431 3686 -1
3431 3687 -1
3431 3688 -1
3431 3702 -1
3431 3703 -1
3431 3704 -1
3432 3432 2.6E1
3432 3433 -1
3432 3447 -1
3432 3448 -1
3432 3449 -1
3432 3671 -1
3432 3672 -1
3432 3673 -1
3432 3687 -1
3432 3688 -1
3432 3689 -1
3432 3703 -1
3432 3704 -1
3432 3705 -1
3433 3433 2.6E1
3433 3434 -1
3433 3448 -1
3433 3449 -1
3433 3450 -1
3433 3672 -1
3433 3673 -1
3433 3674 -1
3433 3688 -1
3433 3689 -1
3433 3690 -1
3433 3704 -1
3433 3705 -1
3433 3706 -1
3434 3434 2.6E1
3434 3435 -1
3434 3449 -1
3434 3450 -1
3434 3451 -1
3434 3673 -1
3434 3674 -1
3434 3675 -1
3434 3689 -1
3434 3690 -1
3434 3691 -1
3434 3705 -1
3434 3706 -1
3434 3707 -1
3435 3435 2.6E1
3435 3436 -1
3435 3450 -1
3435 3451 -1
3435 3452 -1
3435 3674 -1
3435 3675 -1
3435 3676 -1
3435 3690 -1
3435 3691 -1
3435 3692 -1
3435 3706 -1
3435 3707 -1
3435 3708 -1
3436 3436 2.6E1
3436 3437 -1
3436 3451 -1
3436 3452 -1
3436 3453 -1
3436 3675 -1
3436 3676 -1
3436 3677 -1
3436 3691 -1
3436 3692 -1
3436 3693 -1
3436 3707 -1
3436 3708 -1
3436 3709 -1
3437 3437 2.6E1
3437 3438 -1
3437 3452 -1
3437 3453 -1
3437 3454 -1
3437 3676 -1
3437 3677 -1
3437 3678 -1
3437 3692 -1
3437 3693 -1
3437 3694 -1
3437 3708 -1
3437 3709 -1
3437 3710 -1
3438 3438 2.6E1
3438 3439 -1
3438 3453 -1
3438 3454 -1
3438 3455 -1
3438 3677 -1
3438 3678 -1
3438 3679 -1
3438 3693 -1
3438 3694 -1
3438 3695 -1
3438 3709 -1
3438 3710 -1
3438 3711 -1
3439 3439 2.6E1
3439 3440 -1
3439 3454 -1
3439 3455 -1
3439 3456 -1
3439 3678 -1
3439 3679 -1
3439 3680 -1
3439 3694 -1
3439 3695 -1
3439 3696 -1
3439 3710 -1
3439 3711 -1
3439 3712 -1
3440 3440 2.6E1
3440 3455 -1
3440 3456 -1
3440 3679 -1
3440 3680 -1
3440 3695 -1
3440 3696 -1
3440 3711 -1
3440 3712 -1
3441 3441 2.6E1
3441 3442 -1
3441 3457 -1
3441 3458 -1
3441 3681 -1
3441 3682 -1
3441 3697 -1
3441 3698 -1
3441 3713 -1
3441 3714 -1
3442 3442 2.6E1
3442 3443 -1
3442 3457 -1
3442 3458 -1
3442 3459 -1
3442 3681 -1
3442 3682 -1
3442 3683 -1
3442 3697 -1
3442 3698 -1
3442 3699 -1
3442 3713 -1
3442 3714 -1
3442 3715 -1
3443 3443 2.6E1
3443 3444 -1
3443 3458 -1
3443 3459 -1
3443 3460 -1
3443 3682 -1
3443 3683 -1
3443 3684 -1
3443 3698 -1
3443 3699 -1
3443 3700 -1
3443 3714 -1
3443 3715 -1
3443 3716 -1
3444 3444 2.6E1
3444 3445 -1
3444 3459 -1
3444 3460 -1
3444 3461 -1
3444 3683 -1
3444 3684 -1
3444 3685 -1
3444 3699 -1
3444 3700 -1
3444 3701 -1
3444 3715 -1
3444 3716 -1
3444 3717 -1
3445 3445 2.6E1
3445 3446 -1
3445 3460 -1
3445 3461 -1
3445 3462 -1
3445 3684 -1
3445 3685 -1
3445 3686 -1
3445 3700 -1
3445 3701 -1
3445 3702 -1
3445 3716 -1
3445 3717 -1
3445 3718 -1
3446 3446 2.6E1
3446 3447 -1
3446 3461 -1
3446 3462 -1
3446 3463 -1
3446 3685 -1
3446 3686 -1
3446 3687 -1
3446 3701 -1
3446 3702 -1
3446 3703 -1
3446 3717 -1
3446 3718 -1
3446 3719 -1
3447 3447 2.6E1
3447 3448 -1
3447 3462 -1
3447 3463 -1
3447 3464 -1
3447 3686 -1
3447 3687 -1
3447 3688 -1
3447 3702 -1
3447 3703 -1
3447 3704 -1
3447 3718 -1
3447 3719 -1
3447 3720 -1
3448 3448 2.6E1
3448 3449 -1
3448 3463 -1
3448 3464 -1
3448 3465 -1
3448 3687 -1
3448 3688 -1
3448 3689 -1
3448 3703 -1
3448 3704 -1
3448 3705 -1
3448 3719 -1
3448 3720 -1
3448 3721 -1
3449 3449 2.6E1
3449 3450 -1
3449 3464 -1
3449 3465 -1
3449 3466 -1
3449 3688 -1
3449 3689 -1
3449 3690 -1
3449 3704 -1
3449 3705 -1
3449 3706 -1
3449 3720 -1
3449 3721 -1
3449 3722 -1
3450 3450 2.6E1
3450 3451 -1
3450 3465 -1
3450 3466 -1
3450 3467 -1
3450 3689 -1
3450 3690 -1
3450 3691 -1
3450 3705 -1
3450 3706 -1
3450 3707 -1
3450 3721 -1
3450 3722 -1
3450 3723 -1
3451 3451 2.6E1
3451 3452 -1
3451 3466 -1
3451 3467 -1
3451 3468 -1
3451 3690 -1
3451 3691 -1
3451 3692 -1
3451 3706 -1
3451 3707 -1
3451 3708 -1
3451 3722 -1
3451 3723 -1
3451 3724 -1
3452 3452 2.6E1
3452 3453 -1
3452 3467 -1
3452 3468 -1
3452 3469 -1
3452 3691 -1
3452 3692 -1
3452 3693 -1
3452 3707 -1
3452 3708 -1
3452 3709 -1
3452 3723 -1
3452 3724 -1
3452 3725 -1
3453 3453 2.6E1
3453 3454 -1
3453 3468 -1
3453 3469 -1
3453 3470 -1
3453 3692 -1
3453 3693 -1
3453 3694 -1
3453 3708 -1
3453 3709 -1
3453 3710 -1
3453 3724 -1
3453 3725 -1
3453 3726 -1
3454 3454 2.6E1
3454 3455 -1
3454 3469 -1
3454 3470 -1
3454 3471 -1
3454 3693 -1
3454 3694 -1
3454 3695 -1
3454 3709 -1
3454 3710 -1
3454 3711 -1
3454 3725 -1
3454 3726 -1
3454 3727 -1
3455 3455 2.6E1
3455 3456 -1
3455 3470 -1
3455 3471 -1
3455 3472 -1
3455 3694 -1
3455 3695 -1
3455 3696 -1
3455 3710 -1
3455 3711 -1
3455 3712 -1
3455 3726 -1
3455 3727 -1
3455 3728 -1
3456 3456 2.6E1
3456 3471 -1
3456 3472 -1
3456 3695 -1
3456 3696 -1
3456 3711 -1
3456 3712 -1
3456 3727 -1
3456 3728 -1
3457 3457 2.6E1
3457 3458 -1
3457 3473 -1
3457 3474 -1
3457 3697 -1
3457 3698 -1
3457 3713 -1
3457 3714 -1
3457 3729 -1
3457 3730 -1
3458 3458 2.6E1
3458 3459 -1
3458 3473 -1
3458 3474 -1
3458 3475 -1
3458 3697 -1
3458 3698 -1
3458 3699 -1
3458 3713 -1
3458 3714 -1
3458 3715 -1
3458 3729 -1
3458 3730 -1
3458 3731 -1
3459 3459 2.6E1
3459 3460 -1
3459 3474 -1
3459 3475 -1
3459 3476 -1
3459 3698 -1
3459 3699 -1
3459 3700 -1
3459 3714 -1
3459 3715 -1
3459 3716 -1
3459 3730 -1
3459 3731 -1
3459 3732 -1
3460 3460 2.6E1
3460 3461 -1
3460 3475 -1
3460 3476 -1
3460 3477 -1
3460 3699 -1
3460 3700 -1
3460 3701 -1
3460 3715 -1
3460 3716 -1
3460 3717 -1
3460 3731 -1
3460 3732 -1
3460 3733 -1
3461 3461 2.6E1
3461 3462 -1
3461 3476 -1
3461 3477 -1
3461 3478 -1
3461 3700 -1
3461 3701 -1
3461 3702 -1
3461 3716 -1
3461 3717 -1
3461 3718 -1
3461 3732 -1
3461 3733 -1
3461 3734 -1
3462 3462 2.6E1
3462 3463 -1
3462 3477 -1
3462 3478 -1
3462 3479 -1
3462 3701 -1
3462 3702 -1
3462 3703 -1
3462 3717 -1
3462 3718 -1
3462 3719 -1
3462 3733 -1
3462 3734 -1
3462 3735 -1
3463 3463 2.6E1
3463 3464 -1
3463 3478 -1
3463 3479 -1
3463 3480 -1
3463 3702 -1
3463 3703 -1
3463 3704 -1
3463 3718 -1
3463 3719 -1
3463 3720 -1
3463 3734 -1
3463 3735 -1
3463 3736 -1
3464 3464 2.6E1
3464 3465 -1
3464 3479 -1
3464 3480 -1
3464 3481 -1
3464 3703 -1
3464 3704 -1
3464 3705 -1
3464 3719 -1
3464 3720 -1
3464 3721 -1
3464 3735 -1
3464 3736 -1
3464 3737 -1
3465 3465 2.6E1
3465 3466 -1
3465 3480 -1
3465 3481 -1
3465 3482 -1
3465 3704 -1
3465 3705 -1
3465 3706 -1
3465 3720 -1
3465 3721 -1
3465 3722 -1
3465 3736 -1
3465 3737 -1
3465 3738 -1
3466 3466 2.6E1
3466 3467 -1
3466 3481 -1
3466 3482 -1
3466 3483 -1
3466 3705 -1
3466 3706 -1
3466 3707 -1
3466 3721 -1
3466 3722 -1
3466 3723 -1
3466 3737 -1
3466 3738 -1
3466 3739 -1
3467 3467 2.6E1
3467 3468 -1
3467 3482 -1
3467 3483 -1
3467 3484 -1
3467 3706 -1
3467 3707 -1
3467 3708 -1
3467 3722 -1
3467 3723 -1
3467 3724 -1
3467 3738 -1
3467 3739 -1
3467 3740 -1
3468 3468 2.6E1
3468 3469 -1
3468 3483 -1
3468 3484 -1
3468 3485 -1
3468 3707 -1
3468 3708 -1
3468 3709 -1
3468 3723 -1
3468 3724 -1
3468 3725 -1
3468 3739 -1
3468 3740 -1
3468 3741 -1
3469 3469 2.6E1
3469 3470 -1
3469 3484 -1
3469 3485 -1
3469 3486 -1
3469 3708 -1
3469 3709 -1
3469 3710 -1
3469 3724 -1
3469 3725 -1
3469 3726 -1
3469 3740 -1
3469 3741 -1
3469 3742 -1
3470 3470 2.6E1
3470 3471 -1
3470 3485 -1
3470 3486 -1
3470 3487 -1
3470 3709 -1
3470 3710 -1
3470 3711 -1
3470 3725 -1
3470 3726 -1
3470 3727 -1
3470 3741 -1
3470 3742 -1
3470 3743 -1
3471 3471 2.6E1
3471 3472 -1
3471 3486 -1
3471 3487 -1
3471 3488 -1
3471 3710 -1
3471 3711 -1
3471 3712 -1
3471 3726 -1
3471 3727 -1
3471 3728 -1
3471 3742 -1
3471 3743 -1
3471 3744 -1
3472 3472 2.6E1
3472 3487 -1
3472 3488 -1
3472 3711 -1
3472 3712 -1
3472 3727 -1
3472 3728 -1
3472 3743 -1
3472 3744 -1
3473 3473 2.6E1
3473 3474 -1
3473 3489 -1
3473 3490 -1
3473 3713 -1
3473 3714 -1
3473 3729 -1
3473 3730 -1
3473 3745 -1
3473 3746 -1
3474 3474 2.6E1
3474 3475 -1
3474 3489 -1
3474 3490 -1
3474 3491 -1
3474 3713 -1
3474 3714 -1
3474 3715 -1
3474 3729 -1
3474 3730 -1
3474 3731 -1
3474 3745 -1
3474 3746 -1
3474 3747 -1
3475 3475 2.6E1
3475 3476 -1
3475 3490 -1
3475 3491 -1
3475 3492 -1
3475 3714 -1
3475 3715 -1
3475 3716 -1
3475 3730 -1
3475 3731 -1
3475 3732 -1
3475 3746 -1
3475 3747 -1
3475 3748 -1
3476 3476 2.6E1
3476 3477 -1
3476 3491 -1
3476 3492 -1
3476 3493 -1
3476 3715 -1
3476 3716 -1
3476 3717 -1
3476 3731 -1
3476 3732 -1
3476 3733 -1
3476 3747 -1
3476 3748 -1
3476 3749 -1
3477 3477 2.6E1
3477 3478 -1
3477 3492 -1
3477 3493 -1
3477 3494 -1
3477 3716 -1
3477 3717 -1
3477 3718 -1
3477 3732 -1
3477 3733 -1
3477 3734 -1
3477 3748 -1
3477 3749 -1
3477 3750 -1
3478 3478 2.6E1
3478 3479 -1
3478 3493 -1
3478 3494 -1
3478 3495 -1
3478 3717 -1
3478 3718 -1
3478 3719 -1
3478 3733 -1
3478 3734 -1
3478 3735 -1
3478 3749 -1
3478 3750 -1
3478 3751 -1
3479 3479 2.6E1
3479 3480 -1
3479 3494 -1
3479 3495 -1
3479 3496 -1
3479 3718 -1
3479 3719 -1
3479 3720 -1
3479 3734 -1
3479 3735 -1
3479 3736 -1
3479 3750 -1
3479 3751 -1
3479 3752 -1
3480 3480 2.6E1
3480 3481 -1
3480 3495 -1
3480 3496 -1
3480 3497 -1
3480 3719 -1
3480 3720 -1
3480 3721 -1
3480 3735 -1
3480 3736 -1
3480 3737 -1
3480 3751 -1
3480 3752 -1
3480 3753 -1
3481 3481 2.6E1
3481 3482 -1
3481 3496 -1
3481 3497 -1
3481 3498 -1
3481 3720 -1
3481 3721 -1
3481 3722 -1
3481 3736 -1
3481 3737 -1
3481 3738 -1
3481 3752 -1
3481 3753 -1
3481 3754 -1
3482 3482 2.6E1
3482 3483 -1
3482 3497 -1
3482 3498 -1
3482 3499 -1
3482 3721 -1
3482 3722 -1
3482 3723 -1
3482 3737 -1
3482 3738 -1
3482 3739 -1
3482 3753 -1
3482 3754 -1
3482 3755 -1
3483 3483 2.6E1
3483 3484 -1
3483 3498 -1
3483 3499 -1
3483 3500 -1
3483 3722 -1
3483 3723 -1
3483 3724 -1
3483 3738 -1
3483 3739 -1
3483 3740 -1
3483 3754 -1
3483 3755 -1
3483 3756 -1
3484 3484 2.6E1
3484 3485 -1
3484 3499 -1
3484 3500 -1
3484 3501 -1
3484 3723 -1
3484 3724 -1
3484 3725 -1
3484 3739 -1
3484 3740 -1
3484 3741 -1
3484 3755 -1
3484 3756 -1
3484 3757 -1
3485 3485 2.6E1
3485 3486 -1
3485 3500 -1
3485 3501 -1
3485 3502 -1
3485 3724 -1
3485 3725 -1
3485 3726 -1
3485 3740 -1
3485 3741 -1
3485 3742 -1
3485 3756 -1
3485 3757 -1
3485 3758 -1
3486 3486 2.6E1
3486 3487 -1
3486 3501 -1
3486 3502 -1
3486 3503 -1
3486 3725 -1
3486 3726 -1
3486 3727 -1
3486 3741 -1
3486 3742 -1
3486 3743 -1
3486 3757 -1
3486 3758 -1
3486 3759 -1
3487 3487 2.6E1
3487 3488 -1
3487 3502 -1
3487 3503 -1
3487 3504 -1
3487 3726 -1
3487 3727 -1
3487 3728 -1
3487 3742 -1
3487 3743 -1
3487 3744 -1
3487 3758 -1
3487 3759 -1
3487 3760 -1
3488 3488 2.6E1
3488 3503 -1
3488 3504 -1
3488 3727 -1
3488 3728 -1
3488 3743 -1
3488 3744 -1
3488 3759 -1
3488 3760 -1
3489 3489 2.6E1
3489 3490 -1
3489 3505 -1
3489 3506 -1
3489 3729 -1
3489 3730 -1
3489 3745 -1
3489 3746 -1
3489 3761 -1
3489 3762 -1
3490 3490 2.6E1
3490 3491 -1
3490 3505 -1
3490 3506 -1
3490 3507 -1
3490 3729 -1
3490 3730 -1
3490 3731 -1
3490 3745 -1
3490 3746 -1
3490 3747 -1
3490 3761 -1
3490 3762 -1
3490 3763 -1
3491 3491 2.6E1
3491 3492 -1
3491 3506 -1
3491 3507 -1
3491 3508 -1
3491 3730 -1
3491 3731 -1
3491 3732 -1
3491 3746 -1
3491 3747 -1
3491 3748 -1
3491 3762 -1
3491 3763 -1
3491 3764 -1
3492 3492 2.6E1
3492 3493 -1
3492 3507 -1
3492 3508 -1
3492 3509 -1
3492 3731 -1
3492 3732 -1
3492 3733 -1
3492 3747 -1
3492 3748 -1
3492 3749 -1
3492 3763 -1
3492 3764 -1
3492 3765 -1
3493 3493 2.6E1
3493 3494 -1
3493 3508 -1
3493 3509 -1
3493 3510 -1
3493 3732 -1
3493 3733 -1
3493 3734 -1
3493 3748 -1
3493 3749 -1
3493 3750 -1
3493 3764 -1
3493 3765 -1
3493 3766 -1
3494 3494 2.6E1
3494 3495 -1
3494 3509 -1
3494 3510 -1
3494 3511 -1
3494 3733 -1
3494 3734 -1
3494 3735 -1
3494 3749 -1
3494 3750 -1
3494 3751 -1
3494 3765 -1
3494 3766 -1
3494 3767 -1
3495 3495 2.6E1
3495 3496 -1
3495 3510 -1
3495 3511 -1
3495 3512 -1
3495 3734 -1
3495 3735 -1
3495 3736 -1
3495 3750 -1
3495 3751 -1
3495 3752 -1
3495 3766 -1
3495 3767 -1
3495 3768 -1
3496 3496 2.6E1
3496 3497 -1
3496 3511 -1
3496 3512 -1
3496 3513 -1
3496 3735 -1
3496 3736 -1
3496 3737 -1
3496 3751 -1
3496 3752 -1
3496 3753 -1
3496 3767 -1
3496 3768 -1
3496 3769 -1
3497 3497 2.6E1
3497 3498 -1
3497 3512 -1
3497 3513 -1
3497 3514 -1
3497 3736 -1
3497 3737 -1
3497 3738 -1
3497 3752 -1
3497 3753 -1
3497 3754 -1
3497 3768 -1
3497 3769 -1
3497 3770 -1
3498 3498 2.6E1
3498 3499 -1
3498 3513 -1
3498 3514 -1
3498 3515 -1
3498 3737 -1
3498 3738 -1
3498 3739 -1
3498 3753 -1
3498 3754 -1
3498 3755 -1
3498 3769 -1
3498 3770 -1
3498 3771 -1
3499 3499 2.6E1
3499 3500 -1
3499 3514 -1
3499 3515 -1
3499 3516 -1
3499 3738 -1
3499 3739 -1
3499 3740 -1
3499 3754 -1
3499 3755 -1
3499 3756 -1
3499 3770 -1
3499 3771 -1
3499 3772 -1
3500 3500 2.6E1
3500 3501 -1
3500 3515 -1
3500 3516 -1
3500 3517 -1
3500 3739 -1
3500 3740 -1
3500 3741 -1
3500 3755 -1
3500 3756 -1
3500 3757 -1
3500 3771 -1
3500 3772 -1
3500 3773 -1
3501 3501 2.6E1
3501 3502 -1
3501 3516 -1
3501 3517 -1
3501 3518 -1
3501 3740 -1
3501 3741 -1
3501 3742 -1
3501 3756 -1
3501 3757 -1
3501 3758 -1
3501 3772 -1
3501 3773 -1
3501 3774 -1
3502 3502 2.6E1
3502 3503 -1
3502 3517 -1
3502 3518 -1
3502 3519 -1
3502 3741 -1
3502 3742 -1
3502 3743 -1
3502 3757 -1
3502 3758 -1
3502 3759 -1
3502 3773 -1
3502 3774 -1
3502 3775 -1
3503 3503 2.6E1
3503 3504 -1
3503 3518 -1
3503 3519 -1
3503 3520 -1
3503 3742 -1
3503 3743 -1
3503 3744 -1
3503 3758 -1
3503 3759 -1
3503 3760 -1
3503 3774 -1
3503 3775 -1
3503 3776 -1
3504 3504 2.6E1
3504 3519 -1
3504 3520 -1
3504 3743 -1
3504 3744 -1
3504 3759 -1
3504 3760 -1
3504 3775 -1
3504 3776 -1
3505 3505 2.6E1
3505 3506 -1
3505 3521 -1
3505 3522 -1
3505 3745 -1
3505 3746 -1
3505 3761 -1
3505 3762 -1
3505 3777 -1
3505 3778 -1
3506 3506 2.6E1
3506 3507 -1
3506 3521 -1
3506 3522 -1
3506 3523 -1
3506 3745 -1
3506 3746 -1
3506 3747 -1
3506 3761 -1
3506 3762 -1
3506 3763 -1
3506 3777 -1
3506 3778 -1
3506 3779 -1
3507 3507 2.6E1
3507 3508 -1
3507 3522 -1
3507 3523 -1
3507 3524 -1
3507 3746 -1
3507 3747 -1
3507 3748 -1
3507 3762 -1
3507 3763 -1
3507 3764 -1
3507 3778 -1
3507 3779 -1
3507 3780 -1
3508 3508 2.6E1
3508 3509 -1
3508 3523 -1
3508 3524 -1
3508 3525 -1
3508 3747 -1
3508 3748 -1
3508 3749 -1
3508 3763 -1
3508 3764 -1
3508 3765 -1
3508 3779 -1
3508 3780 -1
3508 3781 -1
3509 3509 2.6E1
3509 3510 -1
3509 3524 -1
3509 3525 -1
3509 3526 -1
3509 3748 -1
3509 3749 -1
3509 3750 -1
3509 3764 -1
3509 3765 -1
3509 3766 -1
3509 3780 -1
3509 3781 -1
3509 3782 -1
3510 3510 2.6E1
3510 3511 -1
3510 3525 -1
3510 3526 -1
3510 3527 -1
3510 3749 -1
3510 3750 -1
3510 3751 -1
3510 3765 -1
3510 3766 -1
3510 3767 -1
3510 3781 -1
3510 3782 -1
3510 3783 -1
3511 3511 2.6E1
3511 3512 -1
3511 3526 -1
3511 3527 -1
3511 3528 -1
3511 3750 -1
3511 3751 -1
3511 3752 -1
3511 3766 -1
3511 3767 -1
3511 3768 -1
3511 3782 -1
3511 3783 -1
3511 3784 -1
3512 3512 2.6E1
3512 3513 -1
3512 3527 -1
3512 3528 -1
3512 3529 -1
3512 3751 -1
3512 3752 -1
3512 3753 -1
3512 3767 -1
3512 3768 -1
3512 3769 -1
3512 3783 -1
3512 3784 -1
3512 3785 -1
3513 3513 2.6E1
3513 3514 -1
3513 3528 -1
3513 3529 -1
3513 3530 -1
3513 3752 -1
3513 3753 -1
3513 3754 -1
3513 3768 -1
3513 3769 -1
3513 3770 -1
3513 3784 -1
3513 3785 -1
3513 3786 -1
3514 3514 2.6E1
3514 3515 -1
3514 3529 -1
3514 3530 -1
3514 3531 -1
3514 3753 -1
3514 3754 -1
3514 3755 -1
3514 3769 -1
3514 3770 -1
3514 3771 -1
3514 3785 -1
3514 3786 -1
3514 3787 -1
3515 3515 2.6E1
3515 3516 -1
3515 3530 -1
3515 3531 -1
3515 3532 -1
3515 3754 -1
3515 3755 -1
3515 3756 -1
3515 3770 -1
3515 3771 -1
3515 3772 -1
3515 3786 -1
3515 3787 -1
3515 3788 -1
3516 3516 2.6E1
3516 3517 -1
3516 3531 -1
3516 3532 -1
3516 3533 -1
3516 3755 -1
3516 3756 -1
3516 3757 -1
3516 3771 -1
3516 3772 -1
3516 3773 -1
3516 3787 -1
3516 3788 -1
3516 3789 -1
3517 3517 2.6E1
3517 3518 -1
3517 3532 -1
3517 3533 -1
3517 3534 -1
3517 3756 -1
3517 3757 -1
3517 3758 -1
3517 3772 -1
3517 3773 -1
3517 3774 -1
3517 3788 -1
3517 3789 -1
3517 3790 -1
3518 3518 2.6E1
3518 3519 -1
3518 3533 -1
3518 3534 -1
3518 3535 -1
3518 3757 -1
3518 3758 -1
3518 3759 -1
3518 3773 -1
3518 3774 -1
3518 3775 -1
3518 3789 -1
3518 3790 -1
3518 3791 -1
3519 3519 2.6E1
3519 3520 -1
3519 3534 -1
3519 3535 -1
3519 3536 -1
3519 3758 -1
3519 3759 -1
3519 3760 -1
3519 3774 -1
3519 3775 -1
3519 3776 -1
3519 3790 -1
3519 3791 -1
3519 3792 -1
3520 3520 2.6E1
3520 3535 -1
3520 3536 -1
3520 3759 -1
3520 3760 -1
3520 3775 -1
3520 3776 -1
3520 3791 -1
3520 3792 -1
3521 3521 2.6E1
3521 3522 -1
3521 3537 -1
3521 3538 -1
3521 3761 -1
3521 3762 -1
3521 3777 -1
3521 3778 -1
3521 3793 -1
3521 3794 -1
3522 3522 2.6E1
3522 3523 -1
3522 3537 -1
3522 3538 -1
3522 3539 -1
3522 3761 -1
3522 3762 -1
3522 3763 -1
3522 3777 -1
3522 3778 -1
3522 3779 -1
3522 3793 -1
3522 3794 -1
3522 3795 -1
3523 3523 2.6E1
3523 3524 -1
3523 3538 -1
3523 3539 -1
3523 3540 -1
3523 3762 -1
3523 3763 -1
3523 3764 -1
3523 3778 -1
3523 3779 -1
3523 3780 -1
3523 3794 -1
3523 3795 -1
3523 3796 -1
3524 3524 2.6E1
3524 3525 -1
3524 3539 -1
3524 3540 -1
3524 3541 -1
3524 3763 -1
3524 3764 -1
3524 3765 -1
3524 3779 -1
3524 3780 -1
3524 3781 -1
3524 3795 -1
3524 3796 -1
3524 3797 -1
3525 3525 2.6E1
3525 3526 -1
3525 3540 -1
3525 3541 -1
3525 3542 -1
3525 3764 -1
3525 3765 -1
3525 3766 -1
3525 3780 -1
3525 3781 -1
3525 3782 -1
3525 3796 -1
3525 3797 -1
3525 3798 -1
3526 3526 2.6E1
3526 3527 -1
3526 3541 -1
3526 3542 -1
3526 3543 -1
3526 3765 -1
3526 3766 -1
3526 3767 -1
3526 3781 -1
3526 3782 -1
3526 3783 -1
3526 3797 -1
3526 3798 -1
3526 3799 -1
3527 3527 2.6E1
3527 3528 -1
3527 3542 -1
3527 3543 -1
3527 3544 -1
3527 3766 -1
3527 3767 -1
3527 3768 -1
3527 3782 -1
3527 3783 -1
3527 3784 -1
3527 3798 -1
3527 3799 -1
3527 3800 -1
3528 3528 2.6E1
3528 3529 -1
3528 3543 -1
3528 3544 -1
3528 3545 -1
3528 3767 -1
3528 3768 -1
3528 3769 -1
3528 3783 -1
3528 3784 -1
3528 3785 -1
3528 3799 -1
3528 3800 -1
3528 3801 -1
3529 3529 2.6E1
3529 3530 -1
3529 3544 -1
3529 3545 -1
3529 3546 -1
3529 3768 -1
3529 3769 -1
3529 3770 -1
3529 3784 -1
3529 3785 -1
3529 3786 -1
3529 3800 -1
3529 3801 -1
3529 3802 -1
3530 3530 2.6E1
3530 3531 -1
3530 3545 -1
3530 3546 -1
3530 3547 -1
3530 3769 -1
3530 3770 -1
3530 3771 -1
3530 3785 -1
3530 3786 -1
3530 3787 -1
3530 3801 -1
3530 3802 -1
3530 3803 -1
3531 3531 2.6E1
3531 3532 -1
3531 3546 -1
3531 3547 -1
3531 3548 -1
3531 3770 -1
3531 3771 -1
3531 3772 -1
3531 3786 -1
3531 3787 -1
3531 3788 -1
3531 3802 -1
3531 3803 -1
3531 3804 -1
3532 3532 2.6E1
3532 3533 -1
3532 3547 -1
3532 3548 -1
3532 3549 -1
3532 3771 -1
3532 3772 -1
3532 3773 -1
3532 3787 -1
3532 3788 -1
3532 3789 -1
3532 3803 -1
3532 3804 -1
3532 3805 -1
3533 3533 2.6E1
3533 3534 -1
3533 3548 -1
3533 3549 -1
3533 3550 -1
3533 3772 -1
3533 3773 -1
3533 3774 -1
3533 3788 -1
3533 3789 -1
3533 3790 -1
3533 3804 -1
3533 3805 -1
3533 3806 -1
3534 3534 2.6E1
3534 3535 -1
3534 3549 -1
3534 3550 -1
3534 3551 -1
3534 3773 -1
3534 3774 -1
3534 3775 -1
3534 3789 -1
3534 3790 -1
3534 3791 -1
3534 3805 -1
3534 3806 -1
3534 3807 -1
3535 3535 2.6E1
3535 3536 -1
3535 3550 -1
3535 3551 -1
3535 3552 -1
3535 3774 -1
3535 3775 -1
3535 3776 -1
3535 3790 -1
3535 3791 -1
3535 3792 -1
3535 3806 -1
3535 3807 -1
3535 3808 -1
3536 3536 2.6E1
3536 3551 -1
3536 3552 -1
3536 3775 -1
3536 3776 -1
3536 3791 -1
3536 3792 -1
3536 3807 -1
3536 3808 -1
3537 3537 2.6E1
3537 3538 -1
3537 3553 -1
3537 3554 -1
3537 3777 -1
3537 3778 -1
3537 3793 -1
3537 3794 -1
3537 3809 -1
3537 3810 -1
3538 3538 2.6E1
3538 3539 -1
3538 3553 -1
3538 3554 -1
3538 3555 -1
3538 3777 -1
3538 3778 -1
3538 3779 -1
3538 3793 -1
3538 3794 -1
3538 3795 -1
3538 3809 -1
3538 3810 -1
3538 3811 -1
3539 3539 2.6E1
3539 3540 -1
3539 3554 -1
3539 3555 -1
3539 3556 -1
3539 3778 -1
3539 3779 -1
3539 3780 -1
3539 3794 -1
3539 3795 -1
3539 3796 -1
3539 3810 -1
3539 3811 -1
3539 3812 -1
3540 3540 2.6E1
3540 3541 -1
3540 3555 -1
3540 3556 -1
3540 3557 -1
3540 3779 -1
3540 3780 -1
3540 3781 -1
3540 3795 -1
3540 3796 -1
3540 3797 -1
3540 3811 -1
3540 3812 -1
3540 3813 -1
3541 3541 2.6E1
3541 3542 -1
3541 3556 -1
3541 3557 -1
3541 3558 -1
3541 3780 -1
3541 3781 -1
3541 3782 -1
3541 3796 -1
3541 3797 -1
3541 3798 -1
3541 3812 -1
3541 3813 -1
3541 3814 -1
3542 3542 2.6E1
3542 3543 -1
3542 3557 -1
3542 3558 -1
3542 3559 -1
3542 3781 -1
3542 3782 -1
3542 3783 -1
3542 3797 -1
3542 3798 -1
3542 3799 -1
3542 3813 -1
3542 3814 -1
3542 3815 -1
3543 3543 2.6E1
3543 3544 -1
3543 3558 -1
3543 3559 -1
3543 3560 -1
3543 3782 -1
3543 3783 -1
3543 3784 -1
3543 3798 -1
3543 3799 -1
3543 3800 -1
3543 3814 -1
3543 3815 -1
3543 3816 -1
3544 3544 2.6E1
3544 3545 -1
3544 3559 -1
3544 3560 -1
3544 3561 -1
3544 3783 -1
3544 3784 -1
3544 3785 -1
3544 3799 -1
3544 3800 -1
3544 3801 -1
3544 3815 -1
3544 3816 -1
3544 3817 -1
3545 3545 2.6E1
3545 3546 -1
3545 3560 -1
3545 3561 -1
3545 3562 -1
3545 3784 -1
3545 3785 -1
3545 3786 -1
3545 3800 -1
3545 3801 -1
3545 3802 -1
3545 3816 -1
3545 3817 -1
3545 3818 -1
3546 3546 2.6E1
3546 3547 -1
3546 3561 -1
3546 3562 -1
3546 3563 -1
3546 3785 -1
3546 3786 -1
3546 3787 -1
3546 3801 -1
3546 3802 -1
3546 3803 -1
3546 3817 -1
3546 3818 -1
3546 3819 -1
3547 3547 2.6E1
3547 3548 -1
3547 3562 -1
3547 3563 -1
3547 3564 -1
3547 3786 -1
3547 3787 -1
3547 3788 -1
3547 3802 -1
3547 3803 -1
3547 3804 -1
3547 3818 -1
3547 3819 -1
3547 3820 -1
3548 3548 2.6E1
3548 3549 -1
3548 3563 -1
3548 3564 -1
3548 3565 -1
3548 3787 -1
3548 3788 -1
3548 3789 -1
3548 3803 -1
3548 3804 -1
3548 3805 -1
3548 3819 -1
3548 3820 -1
3548 3821 -1
3549 3549 2.6E1
3549 3550 -1
3549 3564 -1
3549 3565 -1
3549 3566 -1
3549 3788 -1
3549 3789 -1
3549 3790 -1
3549 3804 -1
3549 3805 -1
3549 3806 -1
3549 3820 -1
3549 3821 -1
3549 3822 -1
3550 3550 2.6E1
3550 3551 -1
3550 3565 -1
3550 3566 -1
3550 3567 -1
3550 3789 -1
3550 3790 -1
3550 3791 -1
3550 3805 -1
3550 3806 -1
3550 3807 -1
3550 3821 -1
3550 3822 -1
3550 3823 -1
3551 3551 2.6E1
3551 3552 -1
3551 3566 -1
3551 3567 -1
3551 3568 -1
3551 3790 -1
3551 3791 -1
3551 3792 -1
3551 3806 -1
3551 3807 -1
3551 3808 -1
3551 3822 -1
3551 3823 -1
3551 3824 -1
3552 3552 2.6E1
3552 3567 -1
3552 3568 -1
3552 3791 -1
3552 3792 -1
3552 3807 -1
3552 3808 -1
3552 3823 -1
3552 3824 -1
3553 3553 2.6E1
3553 3554 -1
3553 3569 -1
3553 3570 -1
3553 3793 -1
3553 3794 -1
3553 3809 -1
3553 3810 -1
3553 3825 -1
3553 3826 -1
3554 3554 2.6E1
3554 3555 -1
3554 3569 -1
3554 3570 -1
3554 3571 -1
3554 3793 -1
3554 3794 -1
3554 3795 -1
3554 3809 -1
3554 3810 -1
3554 3811 -1
3554 3825 -1
3554 3826 -1
3554 3827 -1
3555 3555 2.6E1
3555 3556 -1
3555 3570 -1
3555 3571 -1
3555 3572 -1
3555 3794 -1
3555 3795 -1
3555 3796 -1
3555 3810 -1
3555 3811 -1
3555 3812 -1
3555 3826 -1
3555 3827 -1
3555 3828 -1
3556 3556 2.6E1
3556 3557 -1
3556 3571 -1
3556 3572 -1
3556 3573 -1
3556 3795 -1
3556 3796 -1
3556 3797 -1
3556 3811 -1
3556 3812 -1
3556 3813 -1
3556 3827 -1
3556 3828 -1
3556 3829 -1
3557 3557 2.6E1
3557 3558 -1
3557 3572 -1
3557 3573 -1
3557 3574 -1
3557 3796 -1
3557 3797 -1
3557 3798 -1
3557 3812 -1
3557 3813 -1
3557 3814 -1
3557 3828 -1
3557 3829 -1
3557 3830 -1
3558 3558 2.6E1
3558 3559 -1
3558 3573 -1
3558 3574 -1
3558 3575 -1
3558 3797 -1
3558 3798 -1
3558 3799 -1
3558 3813 -1
3558 3814 -1
3558 3815 -1
3558 3829 -1
3558 3830 -1
3558 3831 -1
3559 3559 2.6E1
3559 3560 -1
3559 3574 -1
3559 3575 -1
3559 3576 -1
3559 3798 -1
3559 3799 -1
3559 3800 -1
3559 3814 -1
3559 3815 -1
3559 3816 -1
3559 3830 -1
3559 3831 -1
3559 3832 -1
3560 3560 2.6E1
3560 3561 -1
3560 3575 -1
3560 3576 -1
3560 3577 -1
3560 3799 -1
3560 3800 -1
3560 3801 -1
3560 3815 -1
3560 3816 -1
3560 3817 -1
3560 3831 -1
3560 3832 -1
3560 3833 -1
3561 3561 2.6E1
3561 3562 -1
3561 3576 -1
3561 3577 -1
3561 3578 -1
3561 3800 -1
3561 3801 -1
3561 3802 -1
3561 3816 -1
3561 3817 -1
3561 3818 -1
3561 3832 -1
3561 3833 -1
3561 3834 -1
3562 3562 2.6E1
3562 3563 -1
3562 3577 -1
3562 3578 -1
3562 3579 -1
3562 3801 -1
3562 3802 -1
3562 3803 -1
3562 3817 -1
3562 3818 -1
3562 3819 -1
3562 3833 -1
3562 3834 -1
3562 3835 -1
3563 3563 2.6E1
3563 3564 -1
3563 3578 -1
3563 3579 -1
3563 3580 -1
3563 3802 -1
3563 3803 -1
3563 3804 -1
3563 3818 -1
3563 3819 -1
3563 3820 -1
3563 3834 -1
3563 3835 -1
3563 3836 -1
3564 3564 2.6E1
3564 3565 -1
3564 3579 -1
3564 3580 -1
3564 3581 -1
3564 3803 -1
3564 3804 -1
3564 3805 -1
3564 3819 -1
3564 3820 -1
3564 3821 -1
3564 3835 -1
3564 3836 -1
3564 3837 -1
3565 3565 2.6E1
3565 3566 -1
3565 3580 -1
3565 3581 -1
3565 3582 -1
3565 3804 -1
3565 3805 -1
3565 3806 -1
3565 3820 -1
3565 3821 -1
3565 3822 -1
3565 3836 -1
3565 3837 -1
3565 3838 -1
3566 3566 2.6E1
3566 3567 -1
3566 3581 -1
3566 3582 -1
3566 3583 -1
3566 3805 -1
3566 3806 -1
3566 3807 -1
3566 3821 -1
3566 3822 -1
3566 3823 -1
3566 3837 -1
3566 3838 -1
3566 3839 -1
3567 3567 2.6E1
3567 3568 -1
3567 3582 -1
3567 3583 -1
3567 3584 -1
3567 3806 -1
3567 3807 -1
3567 3808 -1
3567 3822 -1
3567 3823 -1
3567 3824 -1
3567 3838 -1
3567 3839 -1
3567 3840 -1
3568 3568 2.6E1
3568 3583 -1
3568 3584 -1
3568 3807 -1
3568 3808 -1
3568 3823 -1
3568 3824 -1
3568 3839 -1
3568 3840 -1
3569 3569 2.6E1
3569 3570 -1
3569 3809 -1
3569 3810 -1
3569 3825 -1
3569 3826 -1
3570 3570 2.6E1
3570 3571 -1
3570 3809 -1
3570 3810 -1
3570 3811 -1
3570 3825 -1
3570 3826 -1
3570 3827 -1
3571 3571 2.6E1
3571 3572 -1
3571 3810 -1
3571 3811 -1
3571 3812 -1
3571 3826 -1
3571 3827 -1
3571 3828 -1
3572 3572 2.6E1
3572 3573 -1
3572 3811 -1
3572 3812 -1
3572 3813 -1
3572 3827 -1
3572 3828 -1
3572 3829 -1
3573 3573 2.6E1
3573 3574 -1
3573 3812 -1
3573 3813 -1
3573 3814 -1
3573 3828 -1
3573 3829 -1
3573 3830 -1
3574 3574 2.6E1
3574 3575 -1
3574 3813 -1
3574 3814 -1
3574 3815 -1
3574 3829 -1
3574 3830 -1
3574 3831 -1
3575 3575 2.6E1
3575 3576 -1
3575 3814 -1
3575 3815 -1
3575 3816 -1
3575 3830 -1
3575 3831 -1
3575 3832 -1
3576 3576 2.6E1
3576 3577 -1
3576 3815 -1
3576 3816 -1
3576 3817 -1
3576 3831 -1
3576 3832 -1
3576 3833 -1
3577 3577 2.6E1
3577 3578 -1
3577 3816 -1
3577 3817 -1
3577 3818 -1
3577 3832 -1
3577 3833 -1
3577 3834 -1
3578 3578 2.6E1
3578 3579 -1
3578 3817 -1
3578 3818 -1
3578 3819 -1
3578 3833 -1
3578 3834 -1
3578 3835 -1
3579 3579 2.6E1
3579 3580 -1
3579 3818 -1
3579 3819 -1
3579 3820 -1
3579 3834 -1
3579 3835 -1
3579 3836 -1
3580 3580 2.6E1
3580 3581 -1
3580 3819 -1
3580 3820 -1
3580 3821 -1
3580 3835 -1
3580 3836 -1
3580 3837 -1
3581 3581 2.6E1
3581 3582 -1
3581 3820 -1
3581 3821 -1
3581 3822 -1
3581 3836 -1
3581 3837 -1
3581 3838 -1
3582 3582 2.6E1
3582 3583 -1
3582 3821 -1
3582 3822 -1
3582 3823 -1
3582 3837 -1
3582 3838 -1
3582 3839 -1
3583 3583 2.6E1
3583 3584 -1
3583 3822 -1
3583 3823 -1
3583 3824 -1
3583 3838 -1
3583 3839 -1
3583 3840 -1
3584 3584 2.6E1
3584 3823 -1
3584 3824 -1
3584 3839 -1
3584 3840 -1
3585 3585 2.6E1
3585 3586 -1
3585 3601 -1
3585 3602 -1
3585 3841 -1
3585 3842 -1
3585 3857 -1
3585 3858 -1
3586 3586 2.6E1
3586 3587 -1
3586 3601 -1
3586 3602 -1
3586 3603 -1
3586 3841 -1
3586 3842 -1
3586 3843 -1
3586 3857 -1
3586 3858 -1
3586 3859 -1
3587 3587 2.6E1
3587 3588 -1
3587 3602 -1
3587 3603 -1
3587 3604 -1
3587 3842 -1
3587 3843 -1
3587 3844 -1
3587 3858 -1
3587 3859 -1
3587 3860 -1
3588 3588 2.6E1
3588 3589 -1
3588 3603 -1
3588 3604 -1
3588 3605 -1
3588 3843 -1
3588 3844 -1
3588 3845 -1
3588 3859 -1
3588 3860 -1
3588 3861 -1
3589 3589 2.6E1
3589 3590 -1
3589 3604 -1
3589 3605 -1
3589 3606 -1
3589 3844 -1
3589 3845 -1
3589 3846 -1
3589 3860 -1
3589 3861 -1
3589 3862 -1
3590 3590 2.6E1
3590 3591 -1
3590 3605 -1
3590 3606 -1
3590 3607 -1
3590 3845 -1
3590 3846 -1
3590 3847 -1
3590 3861 -1
3590 3862 -1
3590 3863 -1
3591 3591 2.6E1
3591 3592 -1
3591 3606 -1
3591 3607 -1
3591 3608 -1
3591 3846 -1
3591 3847 -1
3591 3848 -1
3591 3862 -1
3591 3863 -1
3591 3864 -1
3592 3592 2.6E1
3592 3593 -1
3592 3607 -1
3592 3608 -1
3592 3609 -1
3592 3847 -1
3592 3848 -1
3592 3849 -1
3592 3863 -1
3592 3864 -1
3592 3865 -1
3593 3593 2.6E1
3593 3594 -1
3593 3608 -1
3593 3609 -1
3593 3610 -1
3593 3848 -1
3593 3849 -1
3593 3850 -1
3593 3864 -1
3593 3865 -1
3593 3866 -1
3594 3594 2.6E1
3594 3595 -1
3594 3609 -1
3594 3610 -1
3594 3611 -1
3594 3849 -1
3594 3850 -1
3594 3851 -1
3594 3865 -1
3594 3866 -1
3594 3867 -1
3595 3595 2.6E1
3595 3596 -1
3595 3610 -1
3595 3611 -1
3595 3612 -1
3595 3850 -1
3595 3851 -1
3595 3852 -1
3595 3866 -1
3595 3867 -1
3595 3868 -1
3596 3596 2.6E1
3596 3597 -1
3596 3611 -1
3596 3612 -1
3596 3613 -1
3596 3851 -1
3596 3852 -1
3596 3853 -1
3596 3867 -1
3596 3868 -1
3596 3869 -1
3597 3597 2.6E1
3597 3598 -1
3597 3612 -1
3597 3613 -1
3597 3614 -1
3597 3852 -1
3597 3853 -1
3597 3854 -1
3597 3868 -1
3597 3869 -1
3597 3870 -1
3598 3598 2.6E1
3598 3599 -1
3598 3613 -1
3598 3614 -1
3598 3615 -1
3598 3853 -1
3598 3854 -1
3598 3855 -1
3598 3869 -1
3598 3870 -1
3598 3871 -1
3599 3599 2.6E1
3599 3600 -1
3599 3614 -1
3599 3615 -1
3599 3616 -1
3599 3854 -1
3599 3855 -1
3599 3856 -1
3599 3870 -1
3599 3871 -1
3599 3872 -1
3600 3600 2.6E1
3600 3615 -1
3600 3616 -1
3600 3855 -1
3600 3856 -1
3600 3871 -1
3600 3872 -1
3601 3601 2.6E1
3601 3602 -1
3601 3617 -1
3601 3618 -1
3601 3841 -1
3601 3842 -1
3601 3857 -1
3601 3858 -1
3601 3873 -1
3601 3874 -1
3602 3602 2.6E1
3602 3603 -1
3602 3617 -1
3602 3618 -1
3602 3619 -1
3602 3841 -1
3602 3842 -1
3602 3843 -1
3602 3857 -1
3602 3858 -1
3602 3859 -1
3602 3873 -1
3602 3874 -1
3602 3875 -1
3603 3603 2.6E1
3603 3604 -1
3603 3618 -1
3603 3619 -1
3603 3620 -1
3603 3842 -1
3603 3843 -1
3603 3844 -1
3603 3858 -1
3603 3859 -1
3603 3860 -1
3603 3874 -1
3603 3875 -1
3603 3876 -1
3604 3604 2.6E1
3604 3605 -1
3604 3619 -1
3604 3620 -1
3604 3621 -1
3604 3843 -1
3604 3844 -1
3604 3845 -1
3604 3859 -1
3604 3860 -1
3604 3861 -1
3604 3875 -1
3604 3876 -1
3604 3877 -1
3605 3605 2.6E1
3605 3606 -1
3605 3620 -1
3605 3621 -1
3605 3622 -1
3605 3844 -1
3605 3845 -1
3605 3846 -1
3605 3860 -1
3605 3861 -1
3605 3862 -1
3605 3876 -1
3605 3877 -1
3605 3878 -1
3606 3606 2.6E1
3606 3607 -1
3606 3621 -1
3606 3622 -1
3606 3623 -1
3606 3845 -1
3606 3846 -1
3606 3847 -1
3606 3861 -1
3606 3862 -1
3606 3863 -1
3606 3877 -1
3606 3878 -1
3606 3879 -1
3607 3607 2.6E1
3607 3608 -1
3607 3622 -1
3607 3623 -1
3607 3624 -1
3607 3846 -1
3607 3847 -1
3607 3848 -1
3607 3862 -1
3607 3863 -1
3607 3864 -1
3607 3878 -1
3607 3879 -1
3607 3880 -1
3608 3608 2.6E1
3608 3609 -1
3608 3623 -1
3608 3624 -1
3608 3625 -1
3608 3847 -1
3608 3848 -1
3608 3849 -1
3608 3863 -1
3608 3864 -1
3608 3865 -1
3608 3879 -1
3608 3880 -1
3608 3881 -1
3609 3609 2.6E1
3609 3610 -1
3609 3624 -1
3609 3625 -1
3609 3626 -1
3609 3848 -1
3609 3849 -1
3609 3850 -1
3609 3864 -1
3609 3865 -1
3609 3866 -1
3609 3880 -1
3609 3881 -1
3609 3882 -1
3610 3610 2.6E1
3610 3611 -1
3610 3625 -1
3610 3626 -1
3610 3627 -1
3610 3849 -1
3610 3850 -1
3610 3851 -1
3610 3865 -1
3610 3866 -1
3610 3867 -1
3610 3881 -1
3610 3882 -1
3610 3883 -1
3611 3611 2.6E1
3611 3612 -1
3611 3626 -1
3611 3627 -1
3611 3628 -1
3611 3850 -1
3611 3851 -1
3611 3852 -1
3611 3866 -1
3611 3867 -1
3611 3868 -1
3611 3882 -1
3611 3883 -1
3611 3884 -1
3612 3612 2.6E1
3612 3613 -1
3612 3627 -1
3612 3628 -1
3612 3629 -1
3612 3851 -1
3612 3852 -1
3612 3853 -1
3612 3867 -1
3612 3868 -1
3612 3869 -1
3612 3883 -1
3612 3884 -1
3612 3885 -1
3613 3613 2.6E1
3613 3614 -1
3613 3628 -1
3613 3629 -1
3613 3630 -1
3613 3852 -1
3613 3853 -1
3613 3854 -1
3613 3868 -1
3613 3869 -1
3613 3870 -1
3613 3884 -1
3613 3885 -1
3613 3886 -1
3614 3614 2.6E1
3614 3615 -1
3614 3629 -1
3614 3630 -1
3614 3631 -1
3614 3853 -1
3614 3854 -1
3614 3855 -1
3614 3869 -1
3614 3870 -1
3614 3871 -1
3614 3885 -1
3614 3886 -1
3614 3887 -1
3615 3615 2.6E1
3615 3616 -1
3615 3630 -1
3615 3631 -1
3615 3632 -1
3615 3854 -1
3615 3855 -1
3615 3856 -1
3615 3870 -1
3615 3871 -1
3615 3872 -1
3615 3886 -1
3615 3887 -1
3615 3888 -1
3616 3616 2.6E1
3616 3631 -1
3616 3632 -1
3616 3855 -1
3616 3856 -1
3616 3871 -1
3616 3872 -1
3616 3887 -1
3616 3888 -1
3617 3617 2.6E1
3617 3618 -1
3617 3633 -1
3617 3634 -1
3617 3857 -1
3617 3858 -1
3617 3873 -1
3617 3874 -1
3617 3889 -1
3617 3890 -1
3618 3618 2.6E1
3618 3619 -1
3618 3633 -1
3618 3634 -1
3618 3635 -1
3618 3857 -1
3618 3858 -1
3618 3859 -1
3618 3873 -1
3618 3874 -1
3618 3875 -1
3618 3889 -1
3618 3890 -1
3618 3891 -1
3619 3619 2.6E1
3619 3620 -1
3619 3634 -1
3619 3635 -1
3619 3636 -1
3619 3858 -1
3619 3859 -1
3619 3860 -1
3619 3874 -1
3619 3875 -1
3619 3876 -1
3619 3890 -1
3619 3891 -1
3619 3892 -1
3620 3620 2.6E1
3620 3621 -1
3620 3635 -1
3620 3636 -1
3620 3637 -1
3620 3859 -1
3620 3860 -1
3620 3861 -1
3620 3875 -1
3620 3876 -1
3620 3877 -1
3620 3891 -1
3620 3892 -1
3620 3893 -1
3621 3621 2.6E1
3621 3622 -1
3621 3636 -1
3621 3637 -1
3621 3638 -1
3621 3860 -1
3621 3861 -1
3621 3862 -1
3621 3876 -1
3621 3877 -1
3621 3878 -1
3621 3892 -1
3621 3893 -1
3621 3894 -1
3622 3622 2.6E1
3622 3623 -1
3622 3637 -1
3622 3638 -1
3622 3639 -1
3622 3861 -1
3622 3862 -1
3622 3863 -1
3622 3877 -1
3622 3878 -1
3622 3879 -1
3622 3893 -1
3622 3894 -1
3622 3895 -1
3623 3623 2.6E1
3623 3624 -1
3623 3638 -1
3623 3639 -1
3623 3640 -1
3623 3862 -1
3623 3863 -1
3623 3864 -1
3623 3878 -1
3623 3879 -1
3623 3880 -1
3623 3894 -1
3623 3895 -1
3623 3896 -1
3624 3624 2.6E1
3624 3625 -1
3624 3639 -1
3624 3640 -1
3624 3641 -1
3624 3863 -1
3624 3864 -1
3624 3865 -1
3624 3879 -1
3624 3880 -1
3624 3881 -1
3624 3895 -1
3624 3896 -1
3624 3897 -1
3625 3625 2.6E1
3625 3626 -1
3625 3640 -1
3625 3641 -1
3625 3642 -1
3625 3864 -1
3625 3865 -1
3625 3866 -1
3625 3880 -1
3625 3881 -1
3625 3882 -1
3625 3896 -1
3625 3897 -1
3625 3898 -1
3626 3626 2.6E1
3626 3627 -1
3626 3641 -1
3626 3642 -1
3626 3643 -1
3626 3865 -1
3626 3866 -1
3626 3867 -1
3626 3881 -1
3626 3882 -1
3626 3883 -1
3626 3897 -1
3626 3898 -1
3626 3899 -1
3627 3627 2.6E1
3627 3628 -1
3627 3642 -1
3627 3643 -1
3627 3644 -1
3627 3866 -1
3627 3867 -1
3627 3868 -1
3627 3882 -1
3627 3883 -1
3627 3884 -1
3627 3898 -1
3627 3899 -1
3627 3900 -1
3628 3628 2.6E1
3628 3629 -1
3628 3643 -1
3628 3644 -1
3628 3645 -1
3628 3867 -1
3628 3868 -1
3628 3869 -1
3628 3883 -1
3628 3884 -1
3628 3885 -1
3628 3899 -1
3628 3900 -1
3628 3901 -1
3629 3629 2.6E1
3629 3630 -1
3629 3644 -1
3629 3645 -1
3629 3646 -1
3629 3868 -1
3629 3869 -1
3629 3870 -1
3629 3884 -1
3629 3885 -1
3629 3886 -1
3629 3900 -1
3629 3901 -1
3629 3902 -1
3630 3630 2.6E1
3630 3631 -1
3630 3645 -1
3630 3646 -1
3630 3647 -1
3630 3869 -1
3630 3870 -1
3630 3871 -1
3630 3885 -1
3630 3886 -1
3630 3887 -1
3630 3901 -1
3630 3902 -1
3630 3903 -1
3631 3631 2.6E1
3631 3632 -1
3631 3646 -1
3631 3647 -1
3631 3648 -1
3631 3870 -1
3631 3871 -1
3631 3872 -1
3631 3886 -1
3631 3887 -1
3631 3888 -1
3631 3902 -1
3631 3903 -1
3631 3904 -1
3632 3632 2.6E1
3632 3647 -1
3632 3648 -1
3632 3871 -1
3632 3872 -1
3632 3887 -1
3632 3888 -1
3632 3903 -1
3632 3904 -1
3633 3633 2.6E1
3633 3634 -1
3633 3649 -1
3633 3650 -1
3633 3873 -1
3633 3874 -1
3633 3889 -1
3633 3890 -1
3633 3905 -1
3633 3906 -1
3634 3634 2.6E1
3634 3635 -1
3634 3649 -1
3634 3650 -1
3634 3651 -1
3634 3873 -1
3634 3874 -1
3634 3875 -1
3634 3889 -1
3634 3890 -1
3634 3891 -1
3634 3905 -1
3634 3906 -1
3634 3907 -1
3635 3635 2.6E1
3635 3636 -1
3635 3650 -1
3635 3651 -1
3635 3652 -1
3635 3874 -1
3635 3875 -1
3635 3876 -1
3635 3890 -1
3635 3891 -1
3635 3892 -1
3635 3906 -1
3635 3907 -1
3635 3908 -1
3636 3636 2.6E1
3636 3637 -1
3636 3651 -1
3636 3652 -1
3636 3653 -1
3636 3875 -1
3636 3876 -1
3636 3877 -1
3636 3891 -1
3636 3892 -1
3636 3893 -1
3636 3907 -1
3636 3908 -1
3636 3909 -1
3637 3637 2.6E1
3637 3638 -1
3637 3652 -1
3637 3653 -1
3637 3654 -1
3637 3876 -1
3637 3877 -1
3637 3878 -1
3637 3892 -1
3637 3893 -1
3637 3894 -1
3637 3908 -1
3637 3909 -1
3637 3910 -1
3638 3638 2.6E1
3638 3639 -1
3638 3653 -1
3638 3654 -1
3638 3655 -1
3638 3877 -1
3638 3878 -1
3638 3879 -1
3638 3893 -1
3638 3894 -1
3638 3895 -1
3638 3909 -1
3638 3910 -1
3638 3911 -1
3639 3639 2.6E1
3639 3640 -1
3639 3654 -1
3639 3655 -1
3639 3656 -1
3639 3878 -1
3639 3879 -1
3639 3880 -1
3639 3894 -1
3639 3895 -1
3639 3896 -1
3639 3910 -1
3639 3911 -1
3639 3912 -1
3640 3640 2.6E1
3640 3641 -1
3640 3655 -1
3640 3656 -1
3640 3657 -1
3640 3879 -1
3640 3880 -1
3640 3881 -1
3640 3895 -1
3640 3896 -1
3640 3897 -1
3640 3911 -1
3640 3912 -1
3640 3913 -1
3641 3641 2.6E1
3641 3642 -1
3641 3656 -1
3641 3657 -1
3641 3658 -1
3641 3880 -1
3641 3881 -1
3641 3882 -1
3641 3896 -1
3641 3897 -1
3641 3898 -1
3641 3912 -1
3641 3913 -1
3641 3914 -1
3642 3642 2.6E1
3642 3643 -1
3642 3657 -1
3642 3658 -1
3642 3659 -1
3642 3881 -1
3642 3882 -1
3642 3883 -1
3642 3897 -1
3642 3898 -1
3642 3899 -1
3642 3913 -1
3642 3914 -1
3642 3915 -1
3643 3643 2.6E1
3643 3644 -1
3643 3658 -1
3643 3659 -1
3643 3660 -1
3643 3882 -1
3643 3883 -1
3643 3884 -1
3643 3898 -1
3643 3899 -1
3643 3900 -1
3643 3914 -1
3643 3915 -1
3643 3916 -1
3644 3644 2.6E1
3644 3645 -1
3644 3659 -1
3644 3660 -1
3644 3661 -1
3644 3883 -1
3644 3884 -1
3644 3885 -1
3644 3899 -1
3644 3900 -1
3644 3901 -1
3644 3915 -1
3644 3916 -1
3644 3917 -1
3645 3645 2.6E1
3645 3646 -1
3645 3660 -1
3645 3661 -1
3645 3662 -1
3645 3884 -1
3645 3885 -1
3645 3886 -1
3645 3900 -1
3645 3901 -1
3645 3902 -1
3645 3916 -1
3645 3917 -1
3645 3918 -1
3646 3646 2.6E1
3646 3647 -1
3646 3661 -1
3646 3662 -1
3646 3663 -1
3646 3885 -1
3646 3886 -1
3646 3887 -1
3646 3901 -1
3646 3902 -1
3646 3903 -1
3646 3917 -1
3646 3918 -1
3646 3919 -1
3647 3647 2.6E1
3647 3648 -1
3647 3662 -1
3647 3663 -1
3647 3664 -1
3647 3886 -1
3647 3887 -1
3647 3888 -1
3647 3902 -1
3647 3903 -1
3647 3904 -1
3647 3918 -1
3647 3919 -1
3647 3920 -1
3648 3648 2.6E1
3648 3663 -1
3648 3664 -1
3648 3887 -1
3648 3888 -1
3648 3903 -1
3648 3904 -1
3648 3919 -1
3648 3920 -1
3649 3649 2.6E1
3649 3650 -1
3649 3665 -1
3649 3666 -1
3649 3889 -1
3649 3890 -1
3649 3905 -1
3649 3906 -1
3649 3921 -1
3649 3922 -1
3650 3650 2.6E1
3650 3651 -1
3650 3665 -1
3650 3666 -1
3650 3667 -1
3650 3889 -1
3650 3890 -1
3650 3891 -1
3650 3905 -1
3650 3906 -1
3650 3907 -1
3650 3921 -1
3650 3922 -1
3650 3923 -1
3651 3651 2.6E1
3651 3652 -1
3651 3666 -1
3651 3667 -1
3651 3668 -1
3651 3890 -1
3651 3891 -1
3651 3892 -1
3651 3906 -1
3651 3907 -1
3651 3908 -1
3651 3922 -1
3651 3923 -1
3651 3924 -1
3652 3652 2.6E1
3652 3653 -1
3652 3667 -1
3652 3668 -1
3652 3669 -1
3652 3891 -1
3652 3892 -1
3652 3893 -1
3652 3907 -1
3652 3908 -1
3652 3909 -1
3652 3923 -1
3652 3924 -1
3652 3925 -1
3653 3653 2.6E1
3653 3654 -1
3653 3668 -1
3653 3669 -1
3653 3670 -1
3653 3892 -1
3653 3893 -1
3653 3894 -1
3653 3908 -1
3653 3909 -1
3653 3910 -1
3653 3924 -1
3653 3925 -1
3653 3926 -1
3654 3654 2.6E1
3654 3655 -1
3654 3669 -1
3654 3670 -1
3654 3671 -1
3654 3893 -1
3654 3894 -1
3654 3895 -1
3654 3909 -1
3654 3910 -1
3654 3911 -1
3654 3925 -1
3654 3926 -1
3654 3927 -1
3655 3655 2.6E1
3655 3656 -1
3655 3670 -1
3655 3671 -1
3655 3672 -1
3655 3894 -1
3655 3895 -1
3655 3896 -1
3655 3910 -1
3655 3911 -1
3655 3912 -1
3655 3926 -1
3655 3927 -1
3655 3928 -1
3656 3656 2.6E1
3656 3657 -1
3656 3671 -1
3656 3672 -1
3656 3673 -1
3656 3895 -1
3656 3896 -1
3656 3897 -1
3656 3911 -1
3656 3912 -1
3656 3913 -1
3656 3927 -1
3656 3928 -1
3656 3929 -1
3657 3657 2.6E1
3657 3658 -1
3657 3672 -1
3657 3673 -1
3657 3674 -1
3657 3896 -1
3657 3897 -1
3657 3898 -1
3657 3912 -1
3657 3913 -1
3657 3914 -1
3657 3928 -1
3657 3929 -1
3657 3930 -1
3658 3658 2.6E1
3658 3659 -1
3658 3673 -1
3658 3674 -1
3658 3675 -1
3658 3897 -1
3658 3898 -1
3658 3899 -1
3658 3913 -1
3658 3914 -1
3658 3915 -1
3658 3929 -1
3658 3930 -1
3658 3931 -1
3659 3659 2.6E1
3659 3660 -1
3659 3674 -1
3659 3675 -1
3659 3676 -1
3659 3898 -1
3659 3899 -1
3659 3900 -1
3659 3914 -1
3659 3915 -1
3659 3916 -1
3659 3930 -1
3659 3931 -1
3659 3932 -1
3660 3660 2.6E1
3660 3661 -1
3660 3675 -1
3660 3676 -1
3660 3677 -1
3660 3899 -1
3660 3900 -1
3660 3901 -1
3660 3915 -1
3660 3916 -1
3660 3917 -1
3660 3931 -1
3660 3932 -1
3660 3933 -1
3661 3661 2.6E1
3661 3662 -1
3661 3676 -1
3661 3677 -1
3661 3678 -1
3661 3900 -1
3661 3901 -1
3661 3902 -1
3661 3916 -1
3661 3917 -1
3661 3918 -1
3661 3932 -1
3661 3933 -1
3661 3934 -1
3662 3662 2.6E1
3662 3663 -1
3662 3677 -1
3662 3678 -1
3662 3679 -1
3662 3901 -1
3662 3902 -1
3662 3903 -1
3662 3917 -1
3662 3918 -1
3662 3919 -1
3662 3933 -1
3662 3934 -1
3662 3935 -1
3663 3663 2.6E1
3663 3664 -1
3663 3678 -1
3663 3679 -1
3663 3680 -1
3663 3902 -1
3663 3903 -1
3663 3904 -1
3663 3918 -1
3663 3919 -1
3663 3920 -1
3663 3934 -1
3663 3935 -1
3663 3936 -1
3664 3664 2.6E1
3664 3679 -1
3664 3680 -1
3664 3903 -1
3664 3904 -1
3664 3919 -1
3664 3920 -1
3664 3935 -1
3664 3936 -1
3665 3665 2.6E1
3665 3666 -1
3665 3681 -1
3665 3682 -1
3665 3905 -1
3665 3906 -1
3665 3921 -1
3665 3922 -1
3665 3937 -1
3665 3938 -1
3666 3666 2.6E1
3666 3667 -1
3666 3681 -1
3666 3682 -1
3666 3683 -1
3666 3905 -1
3666 3906 -1
3666 3907 -1
3666 3921 -1
3666 3922 -1
3666 3923 -1
3666 3937 -1
3666 3938 -1
3666 3939 -1
3667 3667 2.6E1
3667 3668 -1
3667 3682 -1
3667 3683 -1
3667 3684 -1
3667 3906 -1
3667 3907 -1
3667 3908 -1
3667 3922 -1
3667 3923 -1
3667 3924 -1
3667 3938 -1
3667 3939 -1
3667 3940 -1
3668 3668 2.6E1
3668 3669 -1
3668 3683 -1
3668 3684 -1
3668 3685 -1
3668 3907 -1
3668 3908 -1
3668 3909 -1
3668 3923 -1
3668 3924 -1
3668 3925 -1
3668 3939 -1
3668 3940 -1
3668 3941 -1
3669 3669 2.6E1
3669 3670 -1
3669 3684 -1
3669 3685 -1
3669 3686 -1
3669 3908 -1
3669 3909 -1
3669 3910 -1
3669 3924 -1
3669 3925 -1
3669 3926 -1
3669 3940 -1
3669 3941 -1
3669 3942 -1
3670 3670 2.6E1
3670 3671 -1
3670 3685 -1
3670 3686 -1
3670 3687 -1
3670 3909 -1
3670 3910 -1
3670 3911 -1
3670 3925 -1
3670 3926 -1
3670 3927 -1
3670 3941 -1
3670 3942 -1
3670 3943 -1
3671 3671 2.6E1
3671 3672 -1
3671 3686 -1
3671 3687 -1
3671 3688 -1
3671 3910 -1
3671 3911 -1
3671 3912 -1
3671 3926 -1
3671 3927 -1
3671 3928 -1
3671 3942 -1
3671 3943 -1
3671 3944 -1
3672 3672 2.6E1
3672 3673 -1
3672 3687 -1
3672 3688 -1
3672 3689 -1
3672 3911 -1
3672 3912 -1
3672 3913 -1
3672 3927 -1
3672 3928 -1
3672 3929 -1
3672 3943 -1
3672 3944 -1
3672 3945 -1
3673 3673 2.6E1
3673 3674 -1
3673 3688 -1
3673 3689 -1
3673 3690 -1
3673 3912 -1
3673 3913 -1
3673 3914 -1
3673 3928 -1
3673 3929 -1
3673 3930 -1
3673 3944 -1
3673 3945 -1
3673 3946 -1
3674 3674 2.6E1
3674 3675 -1
3674 3689 -1
3674 3690 -1
3674 3691 -1
3674 3913 -1
3674 3914 -1
3674 3915 -1
3674 3929 -1
3674 3930 -1
3674 3931 -1
3674 3945 -1
3674 3946 -1
3674 3947 -1
3675 3675 2.6E1
3675 3676 -1
3675 3690 -1
3675 3691 -1
3675 3692 -1
3675 3914 -1
3675 3915 -1
3675 3916 -1
3675 3930 -1
3675 3931 -1
3675 3932 -1
3675 3946 -1
3675 3947 -1
3675 3948 -1
3676 3676 2.6E1
3676 3677 -1
3676 3691 -1
3676 3692 -1
3676 3693 -1
3676 3915 -1
3676 3916 -1
3676 3917 -1
3676 3931 -1
3676 3932 -1
3676 3933 -1
3676 3947 -1
3676 3948 -1
3676 3949 -1
3677 3677 2.6E1
3677 3678 -1
3677 3692 -1
3677 3693 -1
3677 3694 -1
3677 3916 -1
3677 3917 -1
3677 3918 -1
3677 3932 -1
3677 3933 -1
3677 3934 -1
3677 3948 -1
3677 3949 -1
3677 3950 -1
3678 3678 2.6E1
3678 3679 -1
3678 3693 -1
3678 3694 -1
3678 3695 -1
3678 3917 -1
3678 3918 -1
3678 3919 -1
3678 3933 -1
3678 3934 -1
3678 3935 -1
3678 3949 -1
3678 3950 -1
3678 3951 -1
3679 3679 2.6E1
3679 3680 -1
3679 3694 -1
3679 3695 -1
3679 3696 -1
3679 3918 -1
3679 3919 -1
3679 3920 -1
3679 3934 -1
3679 3935 -1
3679 3936 -1
3679 3950 -1
3679 3951 -1
3679 3952 -1
3680 3680 2.6E1
3680 3695 -1
3680 3696 -1
3680 3919 -1
3680 3920 -1
3680 3935 -1
3680 3936 -1
3680 3951 -1
3680 3952 -1
3681 3681 2.6E1
3681 3682 -1
3681 3697 -1
3681 3698 -1
3681 3921 -1
3681 3922 -1
3681 3937 -1
3681 3938 -1
3681 3953 -1
3681 3954 -1
3682 3682 2.6E1
3682 3683 -1
3682 3697 -1
3682 3698 -1
3682 3699 -1
3682 3921 -1
3682 3922 -1
3682 3923 -1
3682 3937 -1
3682 3938 -1
3682 3939 -1
3682 3953 -1
3682 3954 -1
3682 3955 -1
3683 3683 2.6E1
3683 3684 -1
3683 3698 -1
3683 3699 -1
3683 3700 -1
3683 3922 -1
3683 3923 -1
3683 3924 -1
3683 3938 -1
3683 3939 -1
3683 3940 -1
3683 3954 -1
3683 3955 -1
3683 3956 -1
3684 3684 2.6E1
3684 3685 -1
3684 3699 -1
3684 3700 -1
3684 3701 -1
3684 3923 -1
3684 3924 -1
3684 3925 -1
3684 3939 -1
3684 3940 -1
3684 3941 -1
3684 3955 -1
3684 3956 -1
3684 3957 -1
3685 3685 2.6E1
3685 3686 -1
3685 3700 -1
3685 3701 -1
3685 3702 -1
3685 3924 -1
3685 3925 -1
3685 3926 -1
3685 3940 -1
3685 3941 -1
3685 3942 -1
3685 3956 -1
3685 3957 -1
3685 3958 -1
3686 3686 2.6E1
3686 3687 -1
3686 3701 -1
3686 3702 -1
3686 3703 -1
3686 3925 -1
3686 3926 -1
3686 3927 -1
3686 3941 -1
3686 3942 -1
3686 3943 -1
3686 3957 -1
3686 3958 -1
3686 3959 -1
3687 3687 2.6E1
3687 3688 -1
3687 3702 -1
3687 3703 -1
3687 3704 -1
3687 3926 -1
3687 3927 -1
3687 3928 -1
3687 3942 -1
3687 3943 -1
3687 3944 -1
3687 3958 -1
3687 3959 -1
3687 3960 -1
3688 3688 2.6E1
3688 3689 -1
3688 3703 -1
3688 3704 -1
3688 3705 -1
3688 3927 -1
3688 3928 -1
3688 3929 -1
3688 3943 -1
3688 3944 -1
3688 3945 -1
3688 3959 -1
3688 3960 -1
3688 3961 -1
3689 3689 2.6E1
3689 3690 -1
3689 3704 -1
3689 3705 -1
3689 3706 -1
3689 3928 -1
3689 3929 -1
3689 3930 -1
3689 3944 -1
3689 3945 -1
3689 3946 -1
3689 3960 -1
3689 3961 -1
3689 3962 -1
3690 3690 2.6E1
3690 3691 -1
3690 3705 -1
3690 3706 -1
3690 3707 -1
3690 3929 -1
3690 3930 -1
3690 3931 -1
3690 3945 -1
3690 3946 -1
3690 3947 -1
3690 3961 -1
3690 3962 -1
3690 3963 -1
3691 3691 2.6E1
3691 3692 -1
3691 3706 -1
3691 3707 -1
3691 3708 -1
3691 3930 -1
3691 3931 -1
3691 3932 -1
3691 3946 -1
3691 3947 -1
3691 3948 -1
3691 3962 -1
3691 3963 -1
3691 3964 -1
3692 3692 2.6E1
3692 3693 -1
3692 3707 -1
3692 3708 -1
3692 3709 -1
3692 3931 -1
3692 3932 -1
3692 3933 -1
3692 3947 -1
3692 3948 -1
3692 3949 -1
3692 3963 -1
3692 3964 -1
3692 3965 -1
3693 3693 2.6E1
3693 3694 -1
3693 3708 -1
3693 3709 -1
3693 3710 -1
3693 3932 -1
3693 3933 -1
3693 3934 -1
3693 3948 -1
3693 3949 -1
3693 3950 -1
3693 3964 -1
3693 3965 -1
3693 3966 -1
3694 3694 2.6E1
3694 3695 -1
3694 3709 -1
3694 3710 -1
3694 3711 -1
3694 3933 -1
3694 3934 -1
3694 3935 -1
3694 3949 -1
3694 3950 -1
3694 3951 -1
3694 3965 -1
3694 3966 -1
3694 3967 -1
3695 3695 2.6E1
3695 3696 -1
3695 3710 -1
3695 3711 -1
3695 3712 -1
3695 3934 -1
3695 3935 -1
3695 3936 -1
3695 3950 -1
3695 3951 -1
3695 3952 -1
3695 3966 -1
3695 3967 -1
3695 3968 -1
3696 3696 2.6E1
3696 3711 -1
3696 3712 -1
3696 3935 -1
3696 3936 -1
3696 3951 -1
3696 3952 -1
3696 3967 -1
3696 3968 -1
3697 3697 2.6E1
3697 3698 -1
3697 3713 -1
3697 3714 -1
3697 3937 -1
3697 3938 -1
3697 3953 -1
3697 3954 -1
3697 3969 -1
3697 3970 -1
3698 3698 2.6E1
3698 3699 -1
3698 3713 -1
3698 3714 -1
3698 3715 -1
3698 3937 -1
3698 3938 -1
3698 3939 -1
3698 3953 -1
3698 3954 -1
3698 3955 -1
3698 3969 -1
3698 3970 -1
3698 3971 -1
3699 3699 2.6E1
3699 3700 -1
3699 3714 -1
3699 3715 -1
3699 3716 -1
3699 3938 -1
3699 3939 -1
3699 3940 -1
3699 3954 -1
3699 3955 -1
3699 3956 -1
3699 3970 -1
3699 3971 -1
3699 3972 -1
3700 3700 2.6E1
3700 3701 -1
3700 3715 -1
3700 3716 -1
3700 3717 -1
3700 3939 -1
3700 3940 -1
3700 3941 -1
3700 3955 -1
3700 3956 -1
3700 3957 -1
3700 3971 -1
3700 3972 -1
3700 3973 -1
3701 3701 2.6E1
3701 3702 -1
3701 3716 -1
3701 3717 -1
3701 3718 -1
3701 3940 -1
3701 3941 -1
3701 3942 -1
3701 3956 -1
3701 3957 -1
3701 3958 -1
3701 3972 -1
3701 3973 -1
3701 3974 -1
3702 3702 2.6E1
3702 3703 -1
3702 3717 -1
3702 3718 -1
3702 3719 -1
3702 3941 -1
3702 3942 -1
3702 3943 -1
3702 3957 -1
3702 3958 -1
3702 3959 -1
3702 3973 -1
3702 3974 -1
3702 3975 -1
3703 3703 2.6E1
3703 3704 -1
3703 3718 -1
3703 3719 -1
3703 3720 -1
3703 3942 -1
3703 3943 -1
3703 3944 -1
3703 3958 -1
3703 3959 -1
3703 3960 -1
3703 3974 -1
3703 3975 -1
3703 3976 -1
3704 3704 2.6E1
3704 3705 -1
3704 3719 -1
3704 3720 -1
3704 3721 -1
3704 3943 -1
3704 3944 -1
3704 3945 -1
3704 3959 -1
3704 3960 -1
3704 3961 -1
3704 3975 -1
3704 3976 -1
3704 3977 -1
3705 3705 2.6E1
3705 3706 -1
3705 3720 -1
3705 3721 -1
3705 3722 -1
3705 3944 -1
3705 3945 -1
3705 3946 -1
3705 3960 -1
3705 3961 -1
3705 3962 -1
3705 3976 -1
3705 3977 -1
3705 3978 -1
3706 3706 2.6E1
3706 3707 -1
3706 3721 -1
3706 3722 -1
3706 3723 -1
3706 3945 -1
3706 3946 -1
3706 3947 -1
3706 3961 -1
3706 3962 -1
3706 3963 -1
3706 3977 -1
3706 3978 -1
3706 3979 -1
3707 3707 2.6E1
3707 3708 -1
3707 3722 -1
3707 3723 -1
3707 3724 -1
3707 3946 -1
3707 3947 -1
3707 3948 -1
3707 3962 -1
3707 3963 -1
3707 3964 -1
3707 3978 -1
3707 3979 -1
3707 3980 -1
3708 3708 2.6E1
3708 3709 -1
3708 3723 -1
3708 3724 -1
3708 3725 -1
3708 3947 -1
3708 3948 -1
3708 3949 -1
3708 3963 -1
3708 3964 -1
3708 3965 -1
3708 3979 -1
3708 3980 -1
3708 3981 -1
3709 3709 2.6E1
3709 3710 -1
3709 3724 -1
3709 3725 -1
3709 3726 -1
3709 3948 -1
3709 3949 -1
3709 3950 -1
3709 3964 -1
3709 3965 -1
3709 3966 -1
3709 3980 -1
3709 3981 -1
3709 3982 -1
3710 3710 2.6E1
3710 3711 -1
3710 3725 -1
3710 3726 -1
3710 3727 -1
3710 3949 -1
3710 3950 -1
3710 3951 -1
3710 3965 -1
3710 3966 -1
3710 3967 -1
3710 3981 -1
3710 3982 -1
3710 3983 -1
3711 3711 2.6E1
3711 3712 -1
3711 3726 -1
3711 3727 -1
3711 3728 -1
3711 3950 -1
3711 3951 -1
3711 3952 -1
3711 3966 -1
3711 3967 -1
3711 3968 -1
3711 3982 -1
3711 3983 -1
3711 3984 -1
3712 3712 2.6E1
3712 3727 -1
3712 3728 -1
3712 3951 -1
3712 3952 -1
3712 3967 -1
3712 3968 -1
3712 3983 -1
3712 3984 -1
3713 3713 2.6E1
3713 3714 -1
3713 3729 -1
3713 3730 -1
3713 3953 -1
3713 3954 -1
3713 3969 -1
3713 3970 -1
3713 3985 -1
3713 3986 -1
3714 3714 2.6E1
3714 3715 -1
3714 3729 -1
3714 3730 -1
3714 3731 -1
3714 3953 -1
3714 3954 -1
3714 3955 -1
3714 3969 -1
3714 3970 -1
3714 3971 -1
3714 3985 -1
3714 3986 -1
3714 3987 -1
3715 3715 2.6E1
3715 3716 -1
3715 3730 -1
3715 3731 -1
3715 3732 -1
3715 3954 -1
3715 3955 -1
3715 3956 -1
3715 3970 -1
3715 3971 -1
3715 3972 -1
3715 3986 -1
3715 3987 -1
3715 3988 -1
3716 3716 2.6E1
3716 3717 -1
3716 3731 -1
3716 3732 -1
3716 3733 -1
3716 3955 -1
3716 3956 -1
3716 3957 -1
3716 3971 -1
3716 3972 -1
3716 3973 -1
3716 3987 -1
3716 3988 -1
3716 3989 -1
3717 3717 2.6E1
3717 3718 -1
3717 3732 -1
3717 3733 -1
3717 3734 -1
3717 3956 -1
3717 3957 -1
3717 3958 -1
3717 3972 -1
3717 3973 -1
3717 3974 -1
3717 3988 -1
3717 3989 -1
3717 3990 -1
3718 3718 2.6E1
3718 3719 -1
3718 3733 -1
3718 3734 -1
3718 3735 -1
3718 3957 -1
3718 3958 -1
3718 3959 -1
3718 3973 -1
3718 3974 -1
3718 3975 -1
3718 3989 -1
3718 3990 -1
3718 3991 -1
3719 3719 2.6E1
3719 3720 -1
3719 3734 -1
3719 3735 -1
3719 3736 -1
3719 3958 -1
3719 3959 -1
3719 3960 -1
3719 3974 -1
3719 3975 -1
3719 3976 -1
3719 3990 -1
3719 3991 -1
3719 3992 -1
3720 3720 2.6E1
3720 3721 -1
3720 3735 -1
3720 3736 -1
3720 3737 -1
3720 3959 -1
3720 3960 -1
3720 3961 -1
3720 3975 -1
3720 3976 -1
3720 3977 -1
3720 3991 -1
3720 3992 -1
3720 3993 -1
3721 3721 2.6E1
3721 3722 -1
3721 3736 -1
3721 3737 -1
3721 3738 -1
3721 3960 -1
3721 3961 -1
3721 3962 -1
3721 3976 -1
3721 3977 -1
3721 3978 -1
3721 3992 -1
3721 3993 -1
3721 3994 -1
3722 3722 2.6E1
3722 3723 -1
3722 3737 -1
3722 3738 -1
3722 3739 -1
3722 3961 -1
3722 3962 -1
3722 3963 -1
3722 3977 -1
3722 3978 -1
3722 3979 -1
3722 3993 -1
3722 3994 -1
3722 3995 -1
3723 3723 2.6E1
3723 3724 -1
3723 3738 -1
3723 3739 -1
3723 3740 -1
3723 3962 -1
3723 3963 -1
3723 3964 -1
3723 3978 -1
3723 3979 -1
3723 3980 -1
3723 3994 -1
3723 3995 -1
3723 3996 -1
3724 3724 2.6E1
3724 3725 -1
3724 3739 -1
3724 3740 -1
3724 3741 -1
3724 3963 -1
3724 3964 -1
3724 3965 -1
3724 3979 -1
3724 3980 -1
3724 3981 -1
3724 3995 -1
3724 3996 -1
3724 3997 -1
3725 3725 2.6E1
3725 3726 -1
3725 3740 -1
3725 3741 -1
3725 3742 -1
3725 3964 -1
3725 3965 -1
3725 3966 -1
3725 3980 -1
3725 3981 -1
3725 3982 -1
3725 3996 -1
3725 3997 -1
3725 3998 -1
3726 3726 2.6E1
3726 3727 -1
3726 3741 -1
3726 3742 -1
3726 3743 -1
3726 3965 -1
3726 3966 -1
3726 3967 -1
3726 3981 -1
3726 3982 -1
3726 3983 -1
3726 3997 -1
3726 3998 -1
3726 3999 -1
3727 3727 2.6E1
3727 3728 -1
3727 3742 -1
3727 3743 -1
3727 3744 -1
3727 3966 -1
3727 3967 -1
3727 3968 -1
3727 3982 -1
3727 3983 -1
3727 3984 -1
3727 3998 -1
3727 3999 -1
3727 4000 -1
3728 3728 2.6E1
3728 3743 -1
3728 3744 -1
3728 3967 -1
3728 3968 -1
3728 3983 -1
3728 3984 -1
3728 3999 -1
3728 4000 -1
3729 3729 2.6E1
3729 3730 -1
3729 3745 -1
3729 3746 -1
3729 3969 -1
3729 3970 -1
3729 3985 -1
3729 3986 -1
3729 4001 -1
3729 4002 -1
3730 3730 2.6E1
3730 3731 -1
3730 3745 -1
3730 3746 -1
3730 3747 -1
3730 3969 -1
3730 3970 -1
3730 3971 -1
3730 3985 -1
3730 3986 -1
3730 3987 -1
3730 4001 -1
3730 4002 -1
3730 4003 -1
3731 3731 2.6E1
3731 3732 -1
3731 3746 -1
3731 3747 -1
3731 3748 -1
3731 3970 -1
3731 3971 -1
3731 3972 -1
3731 3986 -1
3731 3987 -1
3731 3988 -1
3731 4002 -1
3731 4003 -1
3731 4004 -1
3732 3732 2.6E1
3732 3733 -1
3732 3747 -1
3732 3748 -1
3732 3749 -1
3732 3971 -1
3732 3972 -1
3732 3973 -1
3732 3987 -1
3732 3988 -1
3732 3989 -1
3732 4003 -1
3732 4004 -1
3732 4005 -1
3733 3733 2.6E1
3733 3734 -1
3733 3748 -1
3733 3749 -1
3733 3750 -1
3733 3972 -1
3733 3973 -1
3733 3974 -1
3733 3988 -1
3733 3989 -1
3733 3990 -1
3733 4004 -1
3733 4005 -1
3733 4006 -1
3734 3734 2.6E1
3734 3735 -1
3734 3749 -1
3734 3750 -1
3734 3751 -1
3734 3973 -1
3734 3974 -1
3734 3975 -1
3734 3989 -1
3734 3990 -1
3734 3991 -1
3734 4005 -1
3734 4006 -1
3734 4007 -1
3735 3735 2.6E1
3735 3736 -1
3735 3750 -1
3735 3751 -1
3735 3752 -1
3735 3974 -1
3735 3975 -1
3735 3976 -1
3735 3990 -1
3735 3991 -1
3735 3992 -1
3735 4006 -1
3735 4007 -1
3735 4008 -1
3736 3736 2.6E1
3736 3737 -1
3736 3751 -1
3736 3752 -1
3736 3753 -1
3736 3975 -1
3736 3976 -1
3736 3977 -1
3736 3991 -1
3736 3992 -1
3736 3993 -1
3736 4007 -1
3736 4008 -1
3736 4009 -1
3737 3737 2.6E1
3737 3738 -1
3737 3752 -1
3737 3753 -1
3737 3754 -1
3737 3976 -1
3737 3977 -1
3737 3978 -1
3737 3992 -1
3737 3993 -1
3737 3994 -1
3737 4008 -1
3737 4009 -1
3737 4010 -1
3738 3738 2.6E1
3738 3739 -1
3738 3753 -1
3738 3754 -1
3738 3755 -1
3738 3977 -1
3738 3978 -1
3738 3979 -1
3738 3993 -1
3738 3994 -1
3738 3995 -1
3738 4009 -1
3738 4010 -1
3738 4011 -1
3739 3739 2.6E1
3739 3740 -1
3739 3754 -1
3739 3755 -1
3739 3756 -1
3739 3978 -1
3739 3979 -1
3739 3980 -1
3739 3994 -1
3739 3995 -1
3739 3996 -1
3739 4010 -1
3739 4011 -1
3739 4012 -1
3740 3740 2.6E1
3740 3741 -1
3740 3755 -1
3740 3756 -1
3740 3757 -1
3740 3979 -1
3740 3980 -1
3740 3981 -1
3740 3995 -1
3740 3996 -1
3740 3997 -1
3740 4011 -1
3740 4012 -1
3740 4013 -1
3741 3741 2.6E1
3741 3742 -1
3741 3756 -1
3741 3757 -1
3741 3758 -1
3741 3980 -1
3741 3981 -1
3741 3982 -1
3741 3996 -1
3741 3997 -1
3741 3998 -1
3741 4012 -1
3741 4013 -1
3741 4014 -1
3742 3742 2.6E1
3742 3743 -1
3742 3757 -1
3742 3758 -1
3742 3759 -1
3742 3981 -1
3742 3982 -1
3742 3983 -1
3742 3997 -1
3742 3998 -1
3742 3999 -1
3742 4013 -1
3742 4014 -1
3742 4015 -1
3743 3743 2.6E1
3743 3744 -1
3743 3758 -1
3743 3759 -1
3743 3760 -1
3743 3982 -1
3743 3983 -1
3743 3984 -1
3743 3998 -1
3743 3999 -1
3743 4000 -1
3743 4014 -1
3743 4015 -1
3743 4016 -1
3744 3744 2.6E1
3744 3759 -1
3744 3760 -1
3744 3983 -1
3744 3984 -1
3744 3999 -1
3744 4000 -1
3744 4015 -1
3744 4016 -1
3745 3745 2.6E1
3745 3746 -1
3745 3761 -1
3745 3762 -1
3745 3985 -1
3745 3986 -1
3745 4001 -1
3745 4002 -1
3745 4017 -1
3745 4018 -1
3746 3746 2.6E1
3746 3747 -1
3746 3761 -1
3746 3762 -1
3746 3763 -1
3746 3985 -1
3746 3986 -1
3746 3987 -1
3746 4001 -1
3746 4002 -1
3746 4003 -1
3746 4017 -1
3746 4018 -1
3746 4019 -1
3747 3747 2.6E1
3747 3748 -1
3747 3762 -1
3747 3763 -1
3747 3764 -1
3747 3986 -1
3747 3987 -1
3747 3988 -1
3747 4002 -1
3747 4003 -1
3747 4004 -1
3747 4018 -1
3747 4019 -1
3747 4020 -1
3748 3748 2.6E1
3748 3749 -1
3748 3763 -1
3748 3764 -1
3748 3765 -1
3748 3987 -1
3748 3988 -1
3748 3989 -1
3748 4003 -1
3748 4004 -1
3748 4005 -1
3748 4019 -1
3748 4020 -1
3748 4021 -1
3749 3749 2.6E1
3749 3750 -1
3749 3764 -1
3749 3765 -1
3749 3766 -1
3749 3988 -1
3749 3989 -1
3749 3990 -1
3749 4004 -1
3749 4005 -1
3749 4006 -1
3749 4020 -1
3749 4021 -1
3749 4022 -1
3750 3750 2.6E1
3750 3751 -1
3750 3765 -1
3750 3766 -1
3750 3767 -1
3750 3989 -1
3750 3990 -1
3750 3991 -1
3750 4005 -1
3750 4006 -1
3750 4007 -1
3750 4021 -1
3750 4022 -1
3750 4023 -1
3751 3751 2.6E1
3751 3752 -1
3751 3766 -1
3751 3767 -1
3751 3768 -1
3751 3990 -1
3751 3991 -1
3751 3992 -1
3751 4006 -1
3751 4007 -1
3751 4008 -1
3751 4022 -1
3751 4023 -1
3751 4024 -1
3752 3752 2.6E1
3752 3753 -1
3752 3767 -1
3752 3768 -1
3752 3769 -1
3752 3991 -1
3752 3992 -1
3752 3993 -1
3752 4007 -1
3752 4008 -1
3752 4009 -1
3752 4023 -1
3752 4024 -1
3752 4025 -1
3753 3753 2.6E1
3753 3754 -1
3753 3768 -1
3753 3769 -1
3753 3770 -1
3753 3992 -1
3753 3993 -1
3753 3994 -1
3753 4008 -1
3753 4009 -1
3753 4010 -1
3753 4024 -1
3753 4025 -1
3753 4026 -1
3754 3754 2.6E1
3754 3755 -1
3754 3769 -1
3754 3770 -1
3754 3771 -1
3754 3993 -1
3754 3994 -1
3754 3995 -1
3754 4009 -1
3754 4010 -1
3754 4011 -1
3754 4025 -1
3754 4026 -1
3754 4027 -1
3755 3755 2.6E1
3755 3756 -1
3755 3770 -1
3755 3771 -1
3755 3772 -1
3755 3994 -1
3755 3995 -1
3755 3996 -1
3755 4010 -1
3755 4011 -1
3755 4012 -1
3755 4026 -1
3755 4027 -1
3755 4028 -1
3756 3756 2.6E1
3756 3757 -1
3756 3771 -1
3756 3772 -1
3756 3773 -1
3756 3995 -1
3756 3996 -1
3756 3997 -1
3756 4011 -1
3756 4012 -1
3756 4013 -1
3756 4027 -1
3756 4028 -1
3756 4029 -1
3757 3757 2.6E1
3757 3758 -1
3757 3772 -1
3757 3773 -1
3757 3774 -1
3757 3996 -1
3757 3997 -1
3757 3998 -1
3757 4012 -1
3757 4013 -1
3757 4014 -1
3757 4028 -1
3757 4029 -1
3757 4030 -1
3758 3758 2.6E1
3758 3759 -1
3758 3773 -1
3758 3774 -1
3758 3775 -1
3758 3997 -1
3758 3998 -1
3758 3999 -1
3758 4013 -1
3758 4014 -1
3758 4015 -1
3758 4029 -1
3758 4030 -1
3758 4031 -1
3759 3759 2.6E1
3759 3760 -1
3759 3774 -1
3759 3775 -1
3759 3776 -1
3759 3998 -1
3759 3999 -1
3759 4000 -1
3759 4014 -1
3759 4015 -1
3759 4016 -1
3759 4030 -1
3759 4031 -1
3759 4032 -1
3760 3760 2.6E1
3760 3775 -1
3760 3776 -1
3760 3999 -1
3760 4000 -1
3760 4015 -1
3760 4016 -1
3760 4031 -1
3760 4032 -1
3761 3761 2.6E1
3761 3762 -1
3761 3777 -1
3761 3778 -1
3761 4001 -1
3761 4002 -1
3761 4017 -1
3761 4018 -1
3761 4033 -1
3761 4034 -1
3762 3762 2.6E1
3762 3763 -1
3762 3777 -1
3762 3778 -1
3762 3779 -1
3762 4001 -1
3762 4002 -1
3762 4003 -1
3762 4017 -1
3762 4018 -1
3762 4019 -1
3762 4033 -1
3762 4034 -1
3762 4035 -1
3763 3763 2.6E1
3763 3764 -1
3763 3778 -1
3763 3779 -1
3763 3780 -1
3763 4002 -1
3763 4003 -1
3763 4004 -1
3763 4018 -1
3763 4019 -1
3763 4020 -1
3763 4034 -1
3763 4035 -1
3763 4036 -1
3764 3764 2.6E1
3764 3765 -1
3764 3779 -1
3764 3780 -1
3764 3781 -1
3764 4003 -1
3764 4004 -1
3764 4005 -1
3764 4019 -1
3764 4020 -1
3764 4021 -1
3764 4035 -1
3764 4036 -1
3764 4037 -1
3765 3765 2.6E1
3765 3766 -1
3765 3780 -1
3765 3781 -1
3765 3782 -1
3765 4004 -1
3765 4005 -1
3765 4006 -1
3765 4020 -1
3765 4021 -1
3765 4022 -1
3765 4036 -1
3765 4037 -1
3765 4038 -1
3766 3766 2.6E1
3766 3767 -1
3766 3781 -1
3766 3782 -1
3766 3783 -1
3766 4005 -1
3766 4006 -1
3766 4007 -1
3766 4021 -1
3766 4022 -1
3766 4023 -1
3766 4037 -1
3766 4038 -1
3766 4039 -1
3767 3767 2.6E1
3767 3768 -1
3767 3782 -1
3767 3783 -1
3767 3784 -1
3767 4006 -1
3767 4007 -1
3767 4008 -1
3767 4022 -1
3767 4023 -1
3767 4024 -1
3767 4038 -1
3767 4039 -1
3767 4040 -1
3768 3768 2.6E1
3768 3769 -1
3768 3783 -1
3768 3784 -1
3768 3785 -1
3768 4007 -1
3768 4008 -1
3768 4009 -1
3768 4023 -1
3768 4024 -1
3768 4025 -1
3768 4039 -1
3768 4040 -1
3768 4041 -1
3769 3769 2.6E1
3769 3770 -1
3769 3784 -1
3769 3785 -1
3769 3786 -1
3769 4008 -1
3769 4009 -1
3769 4010 -1
3769 4024 -1
3769 4025 -1
3769 4026 -1
3769 4040 -1
3769 4041 -1
3769 4042 -1
3770 3770 2.6E1
3770 3771 -1
3770 3785 -1
3770 3786 -1
3770 3787 -1
3770 4009 -1
3770 4010 -1
3770 4011 -1
3770 4025 -1
3770 4026 -1
3770 4027 -1
3770 4041 -1
3770 4042 -1
3770 4043 -1
3771 3771 2.6E1
3771 3772 -1
3771 3786 -1
3771 3787 -1
3771 3788 -1
3771 4010 -1
3771 4011 -1
3771 4012 -1
3771 4026 -1
3771 4027 -1
3771 4028 -1
3771 4042 -1
3771 4043 -1
3771 4044 -1
3772 3772 2.6E1
3772 3773 -1
3772 3787 -1
3772 3788 -1
3772 3789 -1
3772 4011 -1
3772 4012 -1
3772 4013 -1
3772 4027 -1
3772 4028 -1
3772 4029 -1
3772 4043 -1
3772 4044 -1
3772 4045 -1
3773 3773 2.6E1
3773 3774 -1
3773 3788 -1
3773 3789 -1
3773 3790 -1
3773 4012 -1
3773 4013 -1
3773 4014 -1
3773 4028 -1
3773 4029 -1
3773 4030 -1
3773 4044 -1
3773 4045 -1
3773 4046 -1
3774 3774 2.6E1
3774 3775 -1
3774 3789 -1
3774 3790 -1
3774 3791 -1
3774 4013 -1
3774 4014 -1
3774 4015 -1
3774 4029 -1
3774 4030 -1
3774 4031 -1
3774 4045 -1
3774 4046 -1
3774 4047 -1
3775 3775 2.6E1
3775 3776 -1
3775 3790 -1
3775 3791 -1
3775 3792 -1
3775 4014 -1
3775 4015 -1
3775 4016 -1
3775 4030 -1
3775 4031 -1
3775 4032 -1
3775 4046 -1
3775 4047 -1
3775 4048 -1
3776 3776 2.6E1
3776 3791 -1
3776 3792 -1
3776 4015 -1
3776 4016 -1
3776 4031 -1
3776 4032 -1
3776 4047 -1
3776 4048 -1
3777 3777 2.6E1
3777 3778 -1
3777 3793 -1
3777 3794 -1
3777 4017 -1
3777 4018 -1
3777 4033 -1
3777 4034 -1
3777 4049 -1
3777 4050 -1
3778 3778 2.6E1
3778 3779 -1
3778 3793 -1
3778 3794 -1
3778 3795 -1
3778 4017 -1
3778 4018 -1
3778 4019 -1
3778 4033 -1
3778 4034 -1
3778 4035 -1
3778 4049 -1
3778 4050 -1
3778 4051 -1
3779 3779 2.6E1
3779 3780 -1
3779 3794 -1
3779 3795 -1
3779 3796 -1
3779 4018 -1
3779 4019 -1
3779 4020 -1
3779 4034 -1
3779 4035 -1
3779 4036 -1
3779 4050 -1
3779 4051 -1
3779 4052 -1
3780 3780 2.6E1
3780 3781 -1
3780 3795 -1
3780 3796 -1
3780 3797 -1
3780 4019 -1
3780 4020 -1
3780 4021 -1
3780 4035 -1
3780 4036 -1
3780 4037 -1
3780 4051 -1
3780 4052 -1
3780 4053 -1
3781 3781 2.6E1
3781 3782 -1
3781 3796 -1
3781 3797 -1
3781 3798 -1
3781 4020 -1
3781 4021 -1
3781 4022 -1
3781 4036 -1
3781 4037 -1
3781 4038 -1
3781 4052 -1
3781 4053 -1
3781 4054 -1
3782 3782 2.6E1
3782 3783 -1
3782 3797 -1
3782 3798 -1
3782 3799 -1
3782 4021 -1
3782 4022 -1
3782 4023 -1
3782 4037 -1
3782 4038 -1
3782 4039 -1
3782 4053 -1
3782 4054 -1
3782 4055 -1
3783 3783 2.6E1
3783 3784 -1
3783 3798 -1
3783 3799 -1
3783 3800 -1
3783 4022 -1
3783 4023 -1
3783 4024 -1
3783 4038 -1
3783 4039 -1
3783 4040 -1
3783 4054 -1
3783 4055 -1
3783 4056 -1
3784 3784 2.6E1
3784 3785 -1
3784 3799 -1
3784 3800 -1
3784 3801 -1
3784 4023 -1
3784 4024 -1
3784 4025 -1
3784 4039 -1
3784 4040 -1
3784 4041 -1
3784 4055 -1
3784 4056 -1
3784 4057 -1
3785 3785 2.6E1
3785 3786 -1
3785 3800 -1
3785 3801 -1
3785 3802 -1
3785 4024 -1
3785 4025 -1
3785 4026 -1
3785 4040 -1
3785 4041 -1
3785 4042 -1
3785 4056 -1
3785 4057 -1
3785 4058 -1
3786 3786 2.6E1
3786 3787 -1
3786 3801 -1
3786 3802 -1
3786 3803 -1
3786 4025 -1
3786 4026 -1
3786 4027 -1
3786 4041 -1
3786 4042 -1
3786 4043 -1
3786 4057 -1
3786 4058 -1
3786 4059 -1
3787 3787 2.6E1
3787 3788 -1
3787 3802 -1
3787 3803 -1
3787 3804 -1
3787 4026 -1
3787 4027 -1
3787 4028 -1
3787 4042 -1
3787 4043 -1
3787 4044 -1
3787 4058 -1
3787 4059 -1
3787 4060 -1
3788 3788 2.6E1
3788 3789 -1
3788 3803 -1
3788 3804 -1
3788 3805 -1
3788 4027 -1
3788 4028 -1
3788 4029 -1
3788 4043 -1
3788 4044 -1
3788 4045 -1
3788 4059 -1
3788 4060 -1
3788 4061 -1
3789 3789 2.6E1
3789 3790 -1
3789 3804 -1
3789 3805 -1
3789 3806 -1
3789 4028 -1
3789 4029 -1
3789 4030 -1
3789 4044 -1
3789 4045 -1
3789 4046 -1
3789 4060 -1
3789 4061 -1
3789 4062 -1
3790 3790 2.6E1
3790 3791 -1
3790 3805 -1
3790 3806 -1
3790 3807 -1
3790 4029 -1
3790 4030 -1
3790 4031 -1
3790 4045 -1
3790 4046 -1
3790 4047 -1
3790 4061 -1
3790 4062 -1
3790 4063 -1
3791 3791 2.6E1
3791 3792 -1
3791 3806 -1
3791 3807 -1
3791 3808 -1
3791 4030 -1
3791 4031 -1
3791 4032 -1
3791 4046 -1
3791 4047 -1
3791 4048 -1
3791 4062 -1
3791 4063 -1
3791 4064 -1
3792 3792 2.6E1
3792 3807 -1
3792 3808 -1
3792 4031 -1
3792 4032 -1
3792 4047 -1
3792 4048 -1
3792 4063 -1
3792 4064 -1
3793 3793 2.6E1
3793 3794 -1
3793 3809 -1
3793 3810 -1
3793 4033 -1
3793 4034 -1
3793 4049 -1
3793 4050 -1
3793 4065 -1
3793 4066 -1
3794 3794 2.6E1
3794 3795 -1
3794 3809 -1
3794 3810 -1
3794 3811 -1
3794 4033 -1
3794 4034 -1
3794 4035 -1
3794 4049 -1
3794 4050 -1
3794 4051 -1
3794 4065 -1
3794 4066 -1
3794 4067 -1
3795 3795 2.6E1
3795 3796 -1
3795 3810 -1
3795 3811 -1
3795 3812 -1
3795 4034 -1
3795 4035 -1
3795 4036 -1
3795 4050 -1
3795 4051 -1
3795 4052 -1
3795 4066 -1
3795 4067 -1
3795 4068 -1
3796 3796 2.6E1
3796 3797 -1
3796 3811 -1
3796 3812 -1
3796 3813 -1
3796 4035 -1
3796 4036 -1
3796 4037 -1
3796 4051 -1
3796 4052 -1
3796 4053 -1
3796 4067 -1
3796 4068 -1
3796 4069 -1
3797 3797 2.6E1
3797 3798 -1
3797 3812 -1
3797 3813 -1
3797 3814 -1
3797 4036 -1
3797 4037 -1
3797 4038 -1
3797 4052 -1
3797 4053 -1
3797 4054 -1
3797 4068 -1
3797 4069 -1
3797 4070 -1
3798 3798 2.6E1
3798 3799 -1
3798 3813 -1
3798 3814 -1
3798 3815 -1
3798 4037 -1
3798 4038 -1
3798 4039 -1
3798 4053 -1
3798 4054 -1
3798 4055 -1
3798 4069 -1
3798 4070 -1
3798 4071 -1
3799 3799 2.6E1
3799 3800 -1
3799 3814 -1
3799 3815 -1
3799 3816 -1
3799 4038 -1
3799 4039 -1
3799 4040 -1
3799 4054 -1
3799 4055 -1
3799 4056 -1
3799 4070 -1
3799 4071 -1
3799 4072 -1
3800 3800 2.6E1
3800 3801 -1
3800 3815 -1
3800 3816 -1
3800 3817 -1
3800 4039 -1
3800 4040 -1
3800 4041 -1
3800 4055 -1
3800 4056 -1
3800 4057 -1
3800 4071 -1
3800 4072 -1
3800 4073 -1
3801 3801 2.6E1
3801 3802 -1
3801 3816 -1
3801 3817 -1
3801 3818 -1
3801 4040 -1
3801 4041 -1
3801 4042 -1
3801 4056 -1
3801 4057 -1
3801 4058 -1
3801 4072 -1
3801 4073 -1
3801 4074 -1
3802 3802 2.6E1
3802 3803 -1
3802 3817 -1
3802 3818 -1
3802 3819 -1
3802 4041 -1
3802 4042 -1
3802 4043 -1
3802 4057 -1
3802 4058 -1
3802 4059 -1
3802 4073 -1
3802 4074 -1
3802 4075 -1
3803 3803 2.6E1
3803 3804 -1
3803 3818 -1
3803 3819 -1
3803 3820 -1
3803 4042 -1
3803 4043 -1
3803 4044 -1
3803 4058 -1
3803 4059 -1
3803 4060 -1
3803 4074 -1
3803 4075 -1
3803 4076 -1
3804 3804 2.6E1
3804 3805 -1
3804 3819 -1
3804 3820 -1
3804 3821 -1
3804 4043 -1
3804 4044 -1
3804 4045 -1
3804 4059 -1
3804 4060 -1
3804 4061 -1
3804 4075 -1
3804 4076 -1
3804 4077 -1
3805 3805 2.6E1
3805 3806 -1
3805 3820 -1
3805 3821 -1
3805 3822 -1
3805 4044 -1
3805 4045 -1
3805 4046 -1
3805 4060 -1
3805 4061 -1
3805 4062 -1
3805 4076 -1
3805 4077 -1
3805 4078 -1
3806 3806 2.6E1
3806 3807 -1
3806 3821 -1
3806 3822 -1
3806 3823 -1
3806 4045 -1
3806 4046 -1
3806 4047 -1
3806 4061 -1
3806 4062 -1
3806 4063 -1
3806 4077 -1
3806 4078 -1
3806 4079 -1
3807 3807 2.6E1
3807 3808 -1
3807 3822 -1
3807 3823 -1
3807 3824 -1
3807 4046 -1
3807 4047 -1
3807 4048 -1
3807 4062 -1
3807 4063 -1
3807 4064 -1
3807 4078 -1
3807 4079 -1
3807 4080 -1
3808 3808 2.6E1
3808 3823 -1
3808 3824 -1
3808 4047 -1
3808 4048 -1
3808 4063 -1
3808 4064 -1
3808 4079 -1
3808 4080 -1
3809 3809 2.6E1
3809 3810 -1
3809 3825 -1
3809 3826 -1
3809 4049 -1
3809 4050 -1
3809 4065 -1
3809 4066 -1
3809 4081 -1
3809 4082 -1
3810 3810 2.6E1
3810 3811 -1
3810 3825 -1
3810 3826 -1
3810 3827 -1
3810 4049 -1
3810 4050 -1
3810 4051 -1
3810 4065 -1
3810 4066 -1
3810 4067 -1
3810 4081 -1
3810 4082 -1
3810 4083 -1
3811 3811 2.6E1
3811 3812 -1
3811 3826 -1
3811 3827 -1
3811 3828 -1
3811 4050 -1
3811 4051 -1
3811 4052 -1
3811 4066 -1
3811 4067 -1
3811 4068 -1
3811 4082 -1
3811 4083 -1
3811 4084 -1
3812 3812 2.6E1
3812 3813 -1
3812 3827 -1
3812 3828 -1
3812 3829 -1
3812 4051 -1
3812 4052 -1
3812 4053 -1
3812 4067 -1
3812 4068 -1
3812 4069 -1
3812 4083 -1
3812 4084 -1
3812 4085 -1
3813 3813 2.6E1
3813 3814 -1
3813 3828 -1
3813 3829 -1
3813 3830 -1
3813 4052 -1
3813 4053 -1
3813 4054 -1
3813 4068 -1
3813 4069 -1
3813 4070 -1
3813 4084 -1
3813 4085 -1
3813 4086 -1
3814 3814 2.6E1
3814 3815 -1
3814 3829 -1
3814 3830 -1
3814 3831 -1
3814 4053 -1
3814 4054 -1
3814 4055 -1
3814 4069 -1
3814 4070 -1
3814 4071 -1
3814 4085 -1
3814 4086 -1
3814 4087 -1
3815 3815 2.6E1
3815 3816 -1
3815 3830 -1
3815 3831 -1
3815 3832 -1
3815 4054 -1
3815 4055 -1
3815 4056 -1
3815 4070 -1
3815 4071 -1
3815 4072 -1
3815 4086 -1
3815 4087 -1
3815 4088 -1
3816 3816 2.6E1
3816 3817 -1
3816 3831 -1
3816 3832 -1
3816 3833 -1
3816 4055 -1
3816 4056 -1
3816 4057 -1
3816 4071 -1
3816 4072 -1
3816 4073 -1
3816 4087 -1
3816 4088 -1
3816 4089 -1
3817 3817 2.6E1
3817 3818 -1
3817 3832 -1
3817 3833 -1
3817 3834 -1
3817 4056 -1
3817 4057 -1
3817 4058 -1
3817 4072 -1
3817 4073 -1
3817 4074 -1
3817 4088 -1
3817 4089 -1
3817 4090 -1
3818 3818 2.6E1
3818 3819 -1
3818 3833 -1
3818 3834 -1
3818 3835 -1
3818 4057 -1
3818 4058 -1
3818 4059 -1
3818 4073 -1
3818 4074 -1
3818 4075 -1
3818 4089 -1
3818 4090 -1
3818 4091 -1
3819 3819 2.6E1
3819 3820 -1
3819 3834 -1
3819 3835 -1
3819 3836 -1
3819 4058 -1
3819 4059 -1
3819 4060 -1
3819 4074 -1
3819 4075 -1
3819 4076 -1
3819 4090 -1
3819 4091 -1
3819 4092 -1
3820 3820 2.6E1
3820 3821 -1
3820 3835 -1
3820 3836 -1
3820 3837 -1
3820 4059 -1
3820 4060 -1
3820 4061 -1
3820 4075 -1
3820 4076 -1
3820 4077 -1
3820 4091 -1
3820 4092 -1
3820 4093 -1
3821 3821 2.6E1
3821 3822 -1
3821 3836 -1
3821 3837 -1
3821 3838 -1
3821 4060 -1
3821 4061 -1
3821 4062 -1
3821 4076 -1
3821 4077 -1
3821 4078 -1
3821 4092 -1
3821 4093 -1
3821 4094 -1
3822 3822 2.6E1
3822 3823 -1
3822 3837 -1
3822 3838 -1
3822 3839 -1
3822 4061 -1
3822 4062 -1
3822 4063 -1
3822 4077 -1
3822 4078 -1
3822 4079 -1
3822 4093 -1
3822 4094 -1
3822 4095 -1
3823 3823 2.6E1
3823 3824 -1
3823 3838 -1
3823 3839 -1
3823 3840 -1
3823 4062 -1
3823 4063 -1
3823 4064 -1
3823 4078 -1
3823 4079 -1
3823 4080 -1
3823 4094 -1
3823 4095 -1
3823 4096 -1
3824 3824 2.6E1
3824 3839 -1
3824 3840 -1
3824 4063 -1
3824 4064 -1
3824 4079 -1
3824 4080 -1
3824 4095 -1
3824 4096 -1
3825 3825 2.6E1
3825 3826 -1
3825 4065 -1
3825 4066 -1
3825 4081 -1
3825 4082 -1
3826 3826 2.6E1
3826 3827 -1
3826 4065 -1
3826 4066 -1
3826 4067 -1
3826 4081 -1
3826 4082 -1
3826 4083 -1
3827 3827 2.6E1
3827 3828 -1
3827 4066 -1
3827 4067 -1
3827 4068 -1
3827 4082 -1
3827 4083 -1
3827 4084 -1
3828 3828 2.6E1
3828 3829 -1
3828 4067 -1
3828 4068 -1
3828 4069 -1
3828 4083 -1
3828 4084 -1
3828 4085 -1
3829 3829 2.6E1
3829 3830 -1
3829 4068 -1
3829 4069 -1
3829 4070 -1
3829 4084 -1
3829 4085 -1
3829 4086 -1
3830 3830 2.6E1
3830 3831 -1
3830 4069 -1
3830 4070 -1
3830 4071 -1
3830 4085 -1
3830 4086 -1
3830 4087 -1
3831 3831 2.6E1
3831 3832 -1
3831 4070 -1
3831 4071 -1
3831 4072 -1
3831 4086 -1
3831 4087 -1
3831 4088 -1
3832 3832 2.6E1
3832 3833 -1
3832 4071 -1
3832 4072 -1
3832 4073 -1
3832 4087 -1
3832 4088 -1
3832 4089 -1
3833 3833 2.6E1
3833 3834 -1
3833 4072 -1
3833 4073 -1
3833 4074 -1
3833 4088 -1
3833 4089 -1
3833 4090 -1
3834 3834 2.6E1
3834 3835 -1
3834 4073 -1
3834 4074 -1
3834 4075 -1
3834 4089 -1
3834 4090 -1
3834 4091 -1
3835 3835 2.6E1
3835 3836 -1
3835 4074 -1
3835 4075 -1
3835 4076 -1
3835 4090 -1
3835 4091 -1
3835 4092 -1
3836 3836 2.6E1
3836 3837 -1
3836 4075 -1
3836 4076 -1
3836 4077 -1
3836 4091 -1
3836 4092 -1
3836 4093 -1
3837 3837 2.6E1
3837 3838 -1
3837 4076 -1
3837 4077 -1
3837 4078 -1
3837 4092 -1
3837 4093 -1
3837 4094 -1
3838 3838 2.6E1
3838 3839 -1
3838 4077 -1
3838 4078 -1
3838 4079 -1
3838 4093 -1
3838 4094 -1
3838 4095 -1
3839 3839 2.6E1
3839 3840 -1
3839 4078 -1
3839 4079 -1
3839 4080 -1
3839 4094 -1
3839 4095 -1
3839 4096 -1
3840 3840 2.6E1
3840 4079 -1
3840 4080 -1
3840 4095 -1
3840 4096 -1
3841 3841 2.6E1
3841 3842 -1
3841 3857 -1
3841 3858 -1
3842 3842 2.6E1
3842 3843 -1
3842 3857 -1
3842 3858 -1
3842 3859 -1
3843 3843 2.6E1
3843 3844 -1
3843 3858 -1
3843 3859 -1
3843 3860 -1
3844 3844 2.6E1
3844 3845 -1
3844 3859 -1
3844 3860 -1
3844 3861 -1
3845 3845 2.6E1
3845 3846 -1
3845 3860 -1
3845 3861 -1
3845 3862 -1
3846 3846 2.6E1
3846 3847 -1
3846 3861 -1
3846 3862 -1
3846 3863 -1
3847 3847 2.6E1
3847 3848 -1
3847 3862 -1
3847 3863 -1
3847 3864 -1
3848 3848 2.6E1
3848 3849 -1
3848 3863 -1
3848 3864 -1
3848 3865 -1
3849 3849 2.6E1
3849 3850 -1
3849 3864 -1
3849 3865 -1
3849 3866 -1
3850 3850 2.6E1
3850 3851 -1
3850 3865 -1
3850 3866 -1
3850 3867 -1
3851 3851 2.6E1
3851 3852 -1
3851 3866 -1
3851 3867 -1
3851 3868 -1
3852 3852 2.6E1
3852 3853 -1
3852 3867 -1
3852 3868 -1
3852 3869 -1
3853 3853 2.6E1
3853 3854 -1
3853 3868 -1
3853 3869 -1
3853 3870 -1
3854 3854 2.6E1
3854 3855 -1
3854 3869 -1
3854 3870 -1
3854 3871 -1
3855 3855 2.6E1
3855 3856 -1
3855 3870 -1
3855 3871 -1
3855 3872 -1
3856 3856 2.6E1
3856 3871 -1
3856 3872 -1
3857 3857 2.6E1
3857 3858 -1
3857 3873 -1
3857 3874 -1
3858 3858 2.6E1
3858 3859 -1
3858 3873 -1
3858 3874 -1
3858 3875 -1
3859 3859 2.6E1
3859 3860 -1
3859 3874 -1
3859 3875 -1
3859 3876 -1
3860 3860 2.6E1
3860 3861 -1
3860 3875 -1
3860 3876 -1
3860 3877 -1
3861 3861 2.6E1
3861 3862 -1
3861 3876 -1
3861 3877 -1
3861 3878 -1
3862 3862 2.6E1
3862 3863 -1
3862 3877 -1
3862 3878 -1
3862 3879 -1
3863 3863 2.6E1
3863 3864 -1
3863 3878 -1
3863 3879 -1
3863 3880 -1
3864 3864 2.6E1
3864 3865 -1
3864 3879 -1
3864 3880 -1
3864 3881 -1
3865 3865 2.6E1
3865 3866 -1
3865 3880 -1
3865 3881 -1
3865 3882 -1
3866 3866 2.6E1
3866 3867 -1
3866 3881 -1
3866 3882 -1
3866 3883 -1
3867 3867 2.6E1
3867 3868 -1
3867 3882 -1
3867 3883 -1
3867 3884 -1
3868 3868 2.6E1
3868 3869 -1
3868 3883 -1
3868 3884 -1
3868 3885 -1
3869 3869 2.6E1
3869 3870 -1
3869 3884 -1
3869 3885 -1
3869 3886 -1
3870 3870 2.6E1
3870 3871 -1
3870 3885 -1
3870 3886 -1
3870 3887 -1
3871 3871 2.6E1
3871 3872 -1
3871 3886 -1
3871 3887 -1
3871 3888 -1
3872 3872 2.6E1
3872 3887 -1
3872 3888 -1
3873 3873 2.6E1
3873 3874 -1
3873 3889 -1
3873 3890 -1
3874 3874 2.6E1
3874 3875 -1
3874 3889 -1
3874 3890 -1
3874 3891 -1
3875 3875 2.6E1
3875 3876 -1
3875 3890 -1
3875 3891 -1
3875 3892 -1
3876 3876 2.6E1
3876 3877 -1
3876 3891 -1
3876 3892 -1
3876 3893 -1
3877 3877 2.6E1
3877 3878 -1
3877 3892 -1
3877 3893 -1
3877 3894 -1
3878 3878 2.6E1
3878 3879 -1
3878 3893 -1
3878 3894 -1
3878 3895 -1
3879 3879 2.6E1
3879 3880 -1
3879 3894 -1
3879 3895 -1
3879 3896 -1
3880 3880 2.6E1
3880 3881 -1
3880 3895 -1
3880 3896 -1
3880 3897 -1
3881 3881 2.6E1
3881 3882 -1
3881 3896 -1
3881 3897 -1
3881 3898 -1
3882 3882 2.6E1
3882 3883 -1
3882 3897 -1
3882 3898 -1
3882 3899 -1
3883 3883 2.6E1
3883 3884 -1
3883 3898 -1
3883 3899 -1
3883 3900 -1
3884 3884 2.6E1
3884 3885 -1
3884 3899 -1
3884 3900 -1
3884 3901 -1
3885 3885 2.6E1
3885 3886 -1
3885 3900 -1
3885 3901 -1
3885 3902 -1
3886 3886 2.6E1
3886 3887 -1
3886 3901 -1
3886 3902 -1
3886 3903 -1
3887 3887 2.6E1
3887 3888 -1
3887 3902 -1
3887 3903 -1
3887 3904 -1
3888 3888 2.6E1
3888 3903 -1
3888 3904 -1
3889 3889 2.6E1
3889 3890 -1
3889 3905 -1
3889 3906 -1
3890 3890 2.6E1
3890 3891 -1
3890 3905 -1
3890 3906 -1
3890 3907 -1
3891 3891 2.6E1
3891 3892 -1
3891 3906 -1
3891 3907 -1
3891 3908 -1
3892 3892 2.6E1
3892 3893 -1
3892 3907 -1
3892 3908 -1
3892 3909 -1
3893 3893 2.6E1
3893 3894 -1
3893 3908 -1
3893 3909 -1
3893 3910 -1
3894 3894 2.6E1
3894 3895 -1
3894 3909 -1
3894 3910 -1
3894 3911 -1
3895 3895 2.6E1
3895 3896 -1
3895 3910 -1
3895 3911 -1
3895 3912 -1
3896 3896 2.6E1
3896 3897 -1
3896 3911 -1
3896 3912 -1
3896 3913 -1
3897 3897 2.6E1
3897 3898 -1
3897 3912 -1
3897 3913 -1
3897 3914 -1
3898 3898 2.6E1
3898 3899 -1
3898 3913 -1
3898 3914 -1
3898 3915 -1
3899 3899 2.6E1
3899 3900 -1
3899 3914 -1
3899 3915 -1
3899 3916 -1
3900 3900 2.6E1
3900 3901 -1
3900 3915 -1
3900 3916 -1
3900 3917 -1
3901 3901 2.6E1
3901 3902 -1
3901 3916 -1
3901 3917 -1
3901 3918 -1
3902 3902 2.6E1
3902 3903 -1
3902 3917 -1
3902 3918 -1
3902 3919 -1
3903 3903 2.6E1
3903 3904 -1
3903 3918 -1
3903 3919 -1
3903 3920 -1
3904 3904 2.6E1
3904 3919 -1
3904 3920 -1
3905 3905 2.6E1
3905 3906 -1
3905 3921 -1
3905 3922 -1
3906 3906 2.6E1
3906 3907 -1
3906 3921 -1
3906 3922 -1
3906 3923 -1
3907 3907 2.6E1
3907 3908 -1
3907 3922 -1
3907 3923 -1
3907 3924 -1
3908 3908 2.6E1
3908 3909 -1
3908 3923 -1
3908 3924 -1
3908 3925 -1
3909 3909 2.6E1
3909 3910 -1
3909 3924 -1
3909 3925 -1
3909 3926 -1
3910 3910 2.6E1
3910 3911 -1
3910 3925 -1
3910 3926 -1
3910 3927 -1
3911 3911 2.6E1
3911 3912 -1
3911 3926 -1
3911 3927 -1
3911 3928 -1
3912 3912 2.6E1
3912 3913 -1
3912 3927 -1
3912 3928 -1
3912 3929 -1
3913 3913 2.6E1
3913 3914 -1
3913 3928 -1
3913 3929 -1
3913 3930 -1
3914 3914 2.6E1
3914 3915 -1
3914 3929 -1
3914 3930 -1
3914 3931 -1
3915 3915 2.6E1
3915 3916 -1
3915 3930 -1
3915 3931 -1
3915 3932 -1
3916 3916 2.6E1
3916 3917 -1
3916 3931 -1
3916 3932 -1
3916 3933 -1
3917 3917 2.6E1
3917 3918 -1
3917 3932 -1
3917 3933 -1
3917 3934 -1
3918 3918 2.6E1
3918 3919 -1
3918 3933 -1
3918 3934 -1
3918 3935 -1
3919 3919 2.6E1
3919 3920 -1
3919 3934 -1
3919 3935 -1
3919 3936 -1
3920 3920 2.6E1
3920 3935 -1
3920 3936 -1
3921 3921 2.6E1
3921 3922 -1
3921 3937 -1
3921 3938 -1
3922 3922 2.6E1
3922 3923 -1
3922 3937 -1
3922 3938 -1
3922 3939 -1
3923 3923 2.6E1
3923 3924 -1
3923 3938 -1
3923 3939 -1
3923 3940 -1
3924 3924 2.6E1
3924 3925 -1
3924 3939 -1
3924 3940 -1
3924 3941 -1
3925 3925 2.6E1
3925 3926 -1
3925 3940 -1
3925 3941 -1
3925 3942 -1
3926 3926 2.6E1
3926 3927 -1
3926 3941 -1
3926 3942 -1
3926 3943 -1
3927 3927 2.6E1
3927 3928 -1
3927 3942 -1
3927 3943 -1
3927 3944 -1
3928 3928 2.6E1
3928 3929 -1
3928 3943 -1
3928 3944 -1
3928 3945 -1
3929 3929 2.6E1
3929 3930 -1
3929 3944 -1
3929 3945 -1
3929 3946 -1
3930 3930 2.6E1
3930 3931 -1
3930 3945 -1
3930 3946 -1
3930 3947 -1
3931 3931 2.6E1
3931 3932 -1
3931 3946 -1
3931 3947 -1
3931 3948 -1
3932 3932 2.6E1
3932 3933 -1
3932 3947 -1
3932 3948 -1
3932 3949 -1
3933 3933 2.6E1
3933 3934 -1
3933 3948 -1
3933 3949 -1
3933 3950 -1
3934 3934 2.6E1
3934 3935 -1
3934 3949 -1
3934 3950 -1
3934 3951 -1
3935 3935 2.6E1
3935 3936 -1
3935 3950 -1
3935 3951 -1
3935 3952 -1
3936 3936 2.6E1
3936 3951 -1
3936 3952 -1
3937 3937 2.6E1
3937 3938 -1
3937 3953 -1
3937 3954 -1
3938 3938 2.6E1
3938 3939 -1
3938 3953 -1
3938 3954 -1
3938 3955 -1
3939 3939 2.6E1
3939 3940 -1
3939 3954 -1
3939 3955 -1
3939 3956 -1
3940 3940 2.6E1
3940 3941 -1
3940 3955 -1
3940 3956 -1
3940 3957 -1
3941 3941 2.6E1
3941 3942 -1
3941 3956 -1
3941 3957 -1
3941 3958 -1
3942 3942 2.6E1
3942 3943 -1
3942 3957 -1
3942 3958 -1
3942 3959 -1
3943 3943 2.6E1
3943 3944 -1
3943 3958 -1
3943 3959 -1
3943 3960 -1
3944 3944 2.6E1
3944 3945 -1
3944 3959 -1
3944 3960 -1
3944 3961 -1
3945 3945 2.6E1
3945 3946 -1
3945 3960 -1
3945 3961 -1
3945 3962 -1
3946 3946 2.6E1
3946 3947 -1
3946 3961 -1
3946 3962 -1
3946 3963 -1
3947 3947 2.6E1
3947 3948 -1
3947 3962 -1
3947 3963 -1
3947 3964 -1
3948 3948 2.6E1
3948 3949 -1
3948 3963 -1
3948 3964 -1
3948 3965 -1
3949 3949 2.6E1
3949 3950 -1
3949 3964 -1
3949 3965 -1
3949 3966 -1
3950 3950 2.6E1
3950 3951 -1
3950 3965 -1
3950 3966 -1
3950 3967 -1
3951 3951 2.6E1
3951 3952 -1
3951 3966 -1
3951 3967 -1
3951 3968 -1
3952 3952 2.6E1
3952 3967 -1
3952 3968 -1
3953 3953 2.6E1
3953 3954 -1
3953 3969 -1
3953 3970 -1
3954 3954 2.6E1
3954 3955 -1
3954 3969 -1
3954 3970 -1
3954 3971 -1
3955 3955 2.6E1
3955 3956 -1
3955 3970 -1
3955 3971 -1
3955 3972 -1
3956 3956 2.6E1
3956 3957 -1
3956 3971 -1
3956 3972 -1
3956 3973 -1
3957 3957 2.6E1
3957 3958 -1
3957 3972 -1
3957 3973 -1
3957 3974 -1
3958 3958 2.6E1
3958 3959 -1
3958 3973 -1
3958 3974 -1
3958 3975 -1
3959 3959 2.6E1
3959 3960 -1
3959 3974 -1
3959 3975 -1
3959 3976 -1
3960 3960 2.6E1
3960 3961 -1
3960 3975 -1
3960 3976 -1
3960 3977 -1
3961 3961 2.6E1
3961 3962 -1
3961 3976 -1
3961 3977 -1
3961 3978 -1
3962 3962 2.6E1
3962 3963 -1
3962 3977 -1
3962 3978 -1
3962 3979 -1
3963 3963 2.6E1
3963 3964 -1
3963 3978 -1
3963 3979 -1
3963 3980 -1
3964 3964 2.6E1
3964 3965 -1
3964 3979 -1
3964 3980 -1
3964 3981 -1
3965 3965 2.6E1
3965 3966 -1
3965 3980 -1
3965 3981 -1
3965 3982 -1
3966 3966 2.6E1
3966 3967 -1
3966 3981 -1
3966 3982 -1
3966 3983 -1
3967 3967 2.6E1
3967 3968 -1
3967 3982 -1
3967 3983 -1
3967 3984 -1
3968 3968 2.6E1
3968 3983 -1
3968 3984 -1
3969 3969 2.6E1
3969 3970 -1
3969 3985 -1
3969 3986 -1
3970 3970 2.6E1
3970 3971 -1
3970 3985 -1
3970 3986 -1
3970 3987 -1
3971 3971 2.6E1
3971 3972 -1
3971 3986 -1
3971 3987 -1
3971 3988 -1
3972 3972 2.6E1
3972 3973 -1
3972 3987 -1
3972 3988 -1
3972 3989 -1
3973 3973 2.6E1
3973 3974 -1
3973 3988 -1
3973 3989 -1
3973 3990 -1
3974 3974 2.6E1
3974 3975 -1
3974 3989 -1
3974 3990 -1
3974 3991 -1
3975 3975 2.6E1
3975 3976 -1
3975 3990 -1
3975 3991 -1
3975 3992 -1
3976 3976 2.6E1
3976 3977 -1
3976 3991 -1
3976 3992 -1
3976 3993 -1
3977 3977 2.6E1
3977 3978 -1
3977 3992 -1
3977 3993 -1
3977 3994 -1
3978 3978 2.6E1
3978 3979 -1
3978 3993 -1
3978 3994 -1
3978 3995 -1
3979 3979 2.6E1
3979 3980 -1
3979 3994 -1
3979 3995 -1
3979 3996 -1
3980 3980 2.6E1
3980 3981 -1
3980 3995 -1
3980 3996 -1
3980 3997 -1
3981 3981 2.6E1
3981 3982 -1
3981 3996 -1
3981 3997 -1
3981 3998 -1
3982 3982 2.6E1
3982 3983 -1
3982 3997 -1
3982 3998 -1
3982 3999 -1
3983 3983 2.6E1
3983 3984 -1
3983 3998 -1
3983 3999 -1
3983 4000 -1
3984 3984 2.6E1
3984 3999 -1
3984 4000 -1
3985 3985 2.6E1
3985 3986 -1
3985 4001 -1
3985 4002 -1
3986 3986 2.6E1
3986 3987 -1
3986 4001 -1
3986 4002 -1
3986 4003 -1
3987 3987 2.6E1
3987 3988 -1
3987 4002 -1
3987 4003 -1
3987 4004 -1
3988 3988 2.6E1
3988 3989 -1
3988 4003 -1
3988 4004 -1
3988 4005 -1
3989 3989 2.6E1
3989 3990 -1
3989 4004 -1
3989 4005 -1
3989 4006 -1
3990 3990 2.6E1
3990 3991 -1
3990 4005 -1
3990 4006 -1
3990 4007 -1
3991 3991 2.6E1
3991 3992 -1
3991 4006 -1
3991 4007 -1
3991 4008 -1
3992 3992 2.6E1
3992 3993 -1
3992 4007 -1
3992 4008 -1
3992 4009 -1
3993 3993 2.6E1
3993 3994 -1
3993 4008 -1
3993 4009 -1
3993 4010 -1
3994 3994 2.6E1
3994 3995 -1
3994 4009 -1
3994 4010 -1
3994 4011 -1
3995 3995 2.6E1
3995 3996 -1
3995 4010 -1
3995 4011 -1
3995 4012 -1
3996 3996 2.6E1
3996 3997 -1
3996 4011 -1
3996 4012 -1
3996 4013 -1
3997 3997 2.6E1
3997 3998 -1
3997 4012 -1
3997 4013 -1
3997 4014 -1
3998 3998 2.6E1
3998 3999 -1
3998 4013 -1
3998 4014 -1
3998 4015 -1
3999 3999 2.6E1
3999 4000 -1
3999 4014 -1
3999 4015 -1
3999 4016 -1
4000 4000 2.6E1
4000 4015 -1
4000 4016 -1
4001 4001 2.6E1
4001 4002 -1
4001 4017 -1
4001 4018 -1
4002 4002 2.6E1
4002 4003 -1
4002 4017 -1
4002 4018 -1
4002 4019 -1
4003 4003 2.6E1
4003 4004 -1
4003 4018 -1
4003 4019 -1
4003 4020 -1
4004 4004 2.6E1
4004 4005 -1
4004 4019 -1
4004 4020 -1
4004 4021 -1
4005 4005 2.6E1
4005 4006 -1
4005 4020 -1
4005 4021 -1
4005 4022 -1
4006 4006 2.6E1
4006 4007 -1
4006 4021 -1
4006 4022 -1
4006 4023 -1
4007 4007 2.6E1
4007 4008 -1
4007 4022 -1
4007 4023 -1
4007 4024 -1
4008 4008 2.6E1
4008 4009 -1
4008 4023 -1
4008 4024 -1
4008 4025 -1
4009 4009 2.6E1
4009 4010 -1
4009 4024 -1
4009 4025 -1
4009 4026 -1
4010 4010 2.6E1
4010 4011 -1
4010 4025 -1
4010 4026 -1
4010 4027 -1
4011 4011 2.6E1
4011 4012 -1
4011 4026 -1
4011 4027 -1
4011 4028 -1
4012 4012 2.6E1
4012 4013 -1
4012 4027 -1
4012 4028 -1
4012 4029 -1
4013 4013 2.6E1
4013 4014 -1
4013 4028 -1
4013 4029 -1
4013 4030 -1
4014 4014 2.6E1
4014 4015 -1
4014 4029 -1
4014 4030 -1
4014 4031 -1
4015 4015 2.6E1
4015 4016 -1
4015 4030 -1
4015 4031 -1
4015 4032 -1
4016 4016 2.6E1
4016 4031 -1
4016 4032 -1
4017 4017 2.6E1
4017 4018 -1
4017 4033 -1
4017 4034 -1
4018 4018 2.6E1
4018 4019 -1
4018 4033 -1
4018 4034 -1
4018 4035 -1
4019 4019 2.6E1
4019 4020 -1
4019 4034 -1
4019 4035 -1
4019 4036 -1
4020 4020 2.6E1
4020 4021 -1
4020 4035 -1
4020 4036 -1
4020 4037 -1
4021 4021 2.6E1
4021 4022 -1
4021 4036 -1
4021 4037 -1
4021 4038 -1
4022 4022 2.6E1
4022 4023 -1
4022 4037 -1
4022 4038 -1
4022 4039 -1
4023 4023 2.6E1
4023 4024 -1
4023 4038 -1
4023 4039 -1
4023 4040 -1
4024 4024 2.6E1
4024 4025 -1
4024 4039 -1
4024 4040 -1
4024 4041 -1
4025 4025 2.6E1
4025 4026 -1
4025 4040 -1
4025 4041 -1
4025 4042 -1
4026 4026 2.6E1
4026 4027 -1
4026 4041 -1
4026 4042 -1
4026 4043 -1
4027 4027 2.6E1
4027 4028 -1
4027 4042 -1
4027 4043 -1
4027 4044 -1
4028 4028 2.6E1
4028 4029 -1
4028 4043 -1
4028 4044 -1
4028 4045 -1
4029 4029 2.6E1
4029 4030 -1
4029 4044 -1
4029 4045 -1
4029 4046 -1
4030 4030 2.6E1
4030 4031 -1
4030 4045 -1
4030 4046 -1
4030 4047 -1
4031 4031 2.6E1
4031 4032 -1
4031 4046 -1
4031 4047 -1
4031 4048 -1
4032 4032 2.6E1
4032 4047 -1
4032 4048 -1
4033 4033 2.6E1
4033 4034 -1
4033 4049 -1
4033 4050 -1
4034 4034 2.6E1
4034 4035 -1
4034 4049 -1
4034 4050 -1
4034 4051 -1
4035 4035 2.6E1
4035 4036 -1
4035 4050 -1
4035 4051 -1
4035 4052 -1
4036 4036 2.6E1
4036 4037 -1
4036 4051 -1
4036 4052 -1
4036 4053 -1
4037 4037 2.6E1
4037 4038 -1
4037 4052 -1
4037 4053 -1
4037 4054 -1
4038 4038 2.6E1
4038 4039 -1
4038 4053 -1
4038 4054 -1
4038 4055 -1
4039 4039 2.6E1
4039 4040 -1
4039 4054 -1
4039 4055 -1
4039 4056 -1
4040 4040 2.6E1
4040 4041 -1
4040 4055 -1
4040 4056 -1
4040 4057 -1
4041 4041 2.6E1
4041 4042 -1
4041 4056 -1
4041 4057 -1
4041 4058 -1
4042 4042 2.6E1
4042 4043 -1
4042 4057 -1
4042 4058 -1
4042 4059 -1
4043 4043 2.6E1
4043 4044 -1
4043 4058 -1
4043 4059 -1
4043 4060 -1
4044 4044 2.6E1
4044 4045 -1
4044 4059 -1
4044 4060 -1
4044 4061 -1
4045 4045 2.6E1
4045 4046 -1
4045 4060 -1
4045 4061 -1
4045 4062 -1
4046 4046 2.6E1
4046 4047 -1
4046 4061 -1
4046 4062 -1
4046 4063 -1
4047 4047 2.6E1
4047 4048 -1
4047 4062 -1
4047 4063 -1
4047 4064 -1
4048 4048 2.6E1
4048 4063 -1
4048 4064 -1
4049 4049 2.6E1
4049 4050 -1
4049 4065 -1
4049 4066 -1
4050 4050 2.6E1
4050 4051 -1
4050 4065 -1
4050 4066 -1
4050 4067 -1
4051 4051 2.6E1
4051 4052 -1
4051 4066 -1
4051 4067 -1
4051 4068 -1
4052 4052 2.6E1
4052 4053 -1
4052 4067 -1
4052 4068 -1
4052 4069 -1
4053 4053 2.6E1
4053 4054 -1
4053 4068 -1
4053 4069 -1
4053 4070 -1
4054 4054 2.6E1
4054 4055 -1
4054 4069 -1
4054 4070 -1
4054 4071 -1
4055 4055 2.6E1
4055 4056 -1
4055 4070 -1
4055 4071 -1
4055 4072 -1
4056 4056 2.6E1
4056 4057 -1
4056 4071 -1
4056 4072 -1
4056 4073 -1
4057 4057 2.6E1
4057 4058 -1
4057 4072 -1
4057 4073 -1
4057 4074 -1
4058 4058 2.6E1
4058 4059 -1
4058 4073 -1
4058 4074 -1
4058 4075 -1
4059 4059 2.6E1
4059 4060 -1
4059 4074 -1
4059 4075 -1
4059 4076 -1
4060 4060 2.6E1
4060 4061 -1
4060 4075 -1
4060 4076 -1
4060 4077 -1
4061 4061 2.6E1
4061 4062 -1
4061 4076 -1
4061 4077 -1
4061 4078 -1
4062 4062 2.6E1
4062 4063 -1
4062 4077 -1
4062 4078 -1
4062 4079 -1
4063 4063 2.6E1
4063 4064 -1
4063 4078 -1
4063 4079 -1
4063 4080 -1
4064 4064 2.6E1
4064 4079 -1
4064 4080 -1
4065 4065 2.6E1
4065 4066 -1
4065 4081 -1
4065 4082 -1
4066 4066 2.6E1
4066 4067 -1
4066 4081 -1
4066 4082 -1
4066 4083 -1
4067 4067 2.6E1
4067 4068 -1
4067 4082 -1
4067 4083 -1
4067 4084 -1
4068 4068 2.6E1
4068 4069 -1
4068 4083 -1
4068 4084 -1
4068 4085 -1
4069 4069 2.6E1
4069 4070 -1
4069 4084 -1
4069 4085 -1
4069 4086 -1
4070 4070 2.6E1
4070 4071 -1
4070 4085 -1
4070 4086 -1
4070 4087 -1
4071 4071 2.6E1
4071 4072 -1
4071 4086 -1
4071 4087 -1
4071 4088 -1
4072 4072 2.6E1
4072 4073 -1
4072 4087 -1
4072 4088 -1
4072 4089 -1
4073 4073 2.6E1
4073 4074 -1
4073 4088 -1
4073 4089 -1
4073 4090 -1
4074 4074 2.6E1
4074 4075 -1
4074 4089 -1
4074 4090 -1
4074 4091 -1
4075 4075 2.6E1
4075 4076 -1
4075 4090 -1
4075 4091 -1
4075 4092 -1
4076 4076 2.6E1
4076 4077 -1
4076 4091 -1
4076 4092 -1
4076 4093 -1
4077 4077 2.6E1
4077 4078 -1
4077 4092 -1
4077 4093 -1
4077 4094 -1
4078 4078 2.6E1
4078 4079 -1
4078 4093 -1
4078 4094 -1
4078 4095 -1
4079 4079 2.6E1
4079 4080 -1
4079 4094 -1
4079 4095 -1
4079 4096 -1
4080 4080 2.6E1
4080 4095 -1
4080 4096 -1
4081 4081 2.6E1
4081 4082 -1
4082 4082 2.6E1
4082 4083 -1
4083 4083 2.6E1
4083 4084 -1
4084 4084 2.6E1
4084 4085 -1
4085 4085 2.6E1
4085 4086 -1
4086 4086 2.6E1
4086 4087 -1
4087 4087 2.6E1
4087 4088 -1
4088 4088 2.6E1
4088 4089 -1
4089 4089 2.6E1
4089 4090 -1
4090 4090 2.6E1
4090 4091 -1
4091 4091 2.6E1
4091 4092 -1
4092 4092 2.6E1
4092 4093 -1
4093 4093 2.6E1
4093 4094 -1
4094 4094 2.6E1
4094 4095 -1
4095 4095 2.6E1
4095 4096 -1
4096 4096 2.6E1
